*SPEF "ieee 1481-1999"
*DESIGN "g1_chip_top"
*DATE "2026-09-28"
*VENDOR "G1"
*PROGRAM "make_top_spef.py"
*VERSION "2"
*DESIGN_FLOW "PIN_CAP NONE"
*DIVIDER /
*DELIMITER :
*BUS_DELIMITER []
*T_UNIT 1 NS
*C_UNIT 1 PF
*R_UNIT 1 OHM
*L_UNIT 1 HENRY

*PORTS
D_ELT B
D_STD B
EN I
FAULT_N O
GATE O
G_SHARED B
HBT_B B
HBT_C B
HBT_E B
SCLK I
SDI I
SDO O
SENSE_N B
SENSE_P B
TEMP_OUT O
TRIP_SET B
VREF B

*D_NET D_ELT 0.244888
*CONN
*P D_ELT B
*I pad21_d_elt:pad I
*CAP
1 D_ELT 0.122444
2 D_ELT:1 0.122444
*RES
1 D_ELT D_ELT:1 376.5
2 D_ELT:1 pad21_d_elt:pad 0.001
*END

*D_NET D_STD 0.247993
*CONN
*P D_STD B
*I pad20_d_std:pad I
*CAP
1 D_STD 0.123996
2 D_STD:1 0.123996
*RES
1 D_STD D_STD:1 322.7
2 D_STD:1 pad20_d_std:pad 0.001
*END

*D_NET EN 0.12567
*CONN
*P EN I
*I pad12_en:pad I
*CAP
1 EN 0.062835
2 EN:1 0.062835
*RES
1 EN EN:1 0.001
2 EN:1 pad12_en:pad 0.001
*END

*D_NET FAULT_N 0.12567
*CONN
*P FAULT_N O
*I pad11_fault_n:pad I
*CAP
1 FAULT_N 0.062835
2 FAULT_N:1 0.062835
*RES
1 FAULT_N FAULT_N:1 0.001
2 FAULT_N:1 pad11_fault_n:pad 0.001
*END

*D_NET GATE 0.12567
*CONN
*P GATE O
*I pad10_gate:pad I
*CAP
1 GATE 0.062835
2 GATE:1 0.062835
*RES
1 GATE GATE:1 0.001
2 GATE:1 pad10_gate:pad 0.001
*END

*D_NET G_SHARED 0.146395
*CONN
*P G_SHARED B
*I pad19_g_shared:pad I
*CAP
1 G_SHARED 0.0731975
2 G_SHARED:1 0.0731975
*RES
1 G_SHARED G_SHARED:1 274.4
2 G_SHARED:1 pad19_g_shared:pad 0.001
*END

*D_NET HBT_B 0.246887
*CONN
*P HBT_B B
*I pad23_hbt_b:pad I
*CAP
1 HBT_B 0.123443
2 HBT_B:1 0.123443
*RES
1 HBT_B HBT_B:1 450.9
2 HBT_B:1 pad23_hbt_b:pad 0.001
*END

*D_NET HBT_C 0.262748
*CONN
*P HBT_C B
*I pad24_hbt_c:pad I
*CAP
1 HBT_C 0.131374
2 HBT_C:1 0.131374
*RES
1 HBT_C HBT_C:1 499.4
2 HBT_C:1 pad24_hbt_c:pad 0.001
*END

*D_NET HBT_E 0.162162
*CONN
*P HBT_E B
*I pad22_hbt_e:pad I
*CAP
1 HBT_E 0.081081
2 HBT_E:1 0.081081
*RES
1 HBT_E HBT_E:1 203.3
2 HBT_E:1 pad22_hbt_e:pad 0.001
*END

*D_NET SCLK 0.12567
*CONN
*P SCLK I
*I pad14_sclk:pad I
*CAP
1 SCLK 0.062835
2 SCLK:1 0.062835
*RES
1 SCLK SCLK:1 0.001
2 SCLK:1 pad14_sclk:pad 0.001
*END

*D_NET SDI 0.12567
*CONN
*P SDI I
*I pad15_sdi:pad I
*CAP
1 SDI 0.062835
2 SDI:1 0.062835
*RES
1 SDI SDI:1 0.001
2 SDI:1 pad15_sdi:pad 0.001
*END

*D_NET SDO 0.12567
*CONN
*P SDO O
*I pad16_sdo:pad I
*CAP
1 SDO 0.062835
2 SDO:1 0.062835
*RES
1 SDO SDO:1 0.001
2 SDO:1 pad16_sdo:pad 0.001
*END

*D_NET SENSE_N 0.096559
*CONN
*P SENSE_N B
*I pad09_sense_n:pad I
*CAP
1 SENSE_N 0.0482795
2 SENSE_N:1 0.0482795
*RES
1 SENSE_N SENSE_N:1 106.1
2 SENSE_N:1 pad09_sense_n:pad 0.001
*END

*D_NET SENSE_P 0.107572
*CONN
*P SENSE_P B
*I pad08_sense_p:pad I
*CAP
1 SENSE_P 0.053786
2 SENSE_P:1 0.053786
*RES
1 SENSE_P SENSE_P:1 171.5
2 SENSE_P:1 pad08_sense_p:pad 0.001
*END

*D_NET TEMP_OUT 0.12567
*CONN
*P TEMP_OUT O
*I pad17_temp_out:pad I
*CAP
1 TEMP_OUT 0.062835
2 TEMP_OUT:1 0.062835
*RES
1 TEMP_OUT TEMP_OUT:1 0.001
2 TEMP_OUT:1 pad17_temp_out:pad 0.001
*END

*D_NET TRIP_SET 0.13552
*CONN
*P TRIP_SET B
*I pad13_trip_set:pad I
*CAP
1 TRIP_SET 0.06776
2 TRIP_SET:1 0.06776
*RES
1 TRIP_SET TRIP_SET:1 0.001
2 TRIP_SET:1 pad13_trip_set:pad 0.001
*END

*D_NET VREF 0.13343
*CONN
*P VREF B
*I pad18_vref:pad I
*CAP
1 VREF 0.066715
2 VREF:1 0.066715
*RES
1 VREF VREF:1 0.001
2 VREF:1 pad18_vref:pad 0.001
*END

*D_NET en_i 0.125158
*CONN
*I pad12_en:p2c O
*I ANTENNA_1:A I
*I i_core\.u_digital:en I
*I i_core\.u_gate:en_core I
*CAP
1 i_core\.u_digital:en 0.062579
2 pad12_en:p2c 0.0208597
3 ANTENNA_1:A 0.0208597
4 i_core\.u_gate:en_core 0.0208597
*RES
1 i_core\.u_digital:en pad12_en:p2c 389.32
2 i_core\.u_digital:en ANTENNA_1:A 348.486
3 i_core\.u_digital:en i_core\.u_gate:en_core 101.445
*END

*D_NET fault_n_o 0.061803
*CONN
*I i_core\.u_gate:fault_core O
*I pad11_fault_n:c2p I
*CAP
1 i_core\.u_gate:fault_core 0.0309015
2 pad11_fault_n:c2p 0.0309015
*RES
1 i_core\.u_gate:fault_core pad11_fault_n:c2p 286.858
*END

*D_NET gate_o 0.080397
*CONN
*I i_core\.u_gate:gate_core O
*I pad10_gate:c2p I
*CAP
1 i_core\.u_gate:gate_core 0.0401985
2 pad10_gate:c2p 0.0401985
*RES
1 i_core\.u_gate:gate_core pad10_gate:c2p 214.649
*END

*D_NET i_core_bgr_r4_12 0.021697
*CONN
*I i_core\.u_digital:bgr_r4 O
*I i_core\.u_ls_r4:in I
*CAP
1 i_core\.u_digital:bgr_r4 0.0108485
2 i_core\.u_ls_r4:in 0.0108485
*RES
1 i_core\.u_digital:bgr_r4 i_core\.u_ls_r4:in 80.748
*END

*D_NET i_core_bgr_r4_33 0.06942
*CONN
*I i_core\.u_ls_r4:out O
*I i_core\.u_bgr:r4 I
*CAP
1 i_core\.u_bgr:r4 0.03471
2 i_core\.u_ls_r4:out 0.03471
*RES
1 i_core\.u_bgr:r4 i_core\.u_ls_r4:out 246.816
*END

*D_NET i_core_clk_div_out 0
*CONN
*I i_core\.u_digital:clk_div_out O
*END

*D_NET i_core_clr_d 0.024657
*CONN
*I i_core\.u_digital:clr_d O
*I i_core\.u_gate:clr_d I
*CAP
1 i_core\.u_digital:clr_d 0.0123285
2 i_core\.u_gate:clr_d 0.0123285
*RES
1 i_core\.u_digital:clr_d i_core\.u_gate:clr_d 55.044
*END

*D_NET i_core_cmp_clk 0.12249
*CONN
*I i_core\.u_digital:cmp_clk O
*I i_core\.u_trip:clk I
*CAP
1 i_core\.u_digital:cmp_clk 0.061245
2 i_core\.u_trip:clk 0.061245
*RES
1 i_core\.u_digital:cmp_clk i_core\.u_trip:clk 280.014
*END

*D_NET i_core_cmp_hard 0.180654
*CONN
*I i_core\.u_trip:cmp_hard O
*I i_core\.u_digital:cmp_hard I
*I i_core\.u_gate:hard_cmp I
*CAP
1 i_core\.u_digital:cmp_hard 0.090327
2 i_core\.u_trip:cmp_hard 0.0451635
3 i_core\.u_gate:hard_cmp 0.0451635
*RES
1 i_core\.u_digital:cmp_hard i_core\.u_trip:cmp_hard 379.704
2 i_core\.u_digital:cmp_hard i_core\.u_gate:hard_cmp 88.07
*END

*D_NET i_core_cmp_soft 0.269736
*CONN
*I i_core\.u_trip:cmp_soft O
*I ANTENNA_2:A I
*I ANTENNA_3:A I
*I i_core\.u_digital:cmp_soft I
*CAP
1 i_core\.u_digital:cmp_soft 0.134868
2 i_core\.u_trip:cmp_soft 0.044956
3 ANTENNA_2:A 0.044956
4 ANTENNA_3:A 0.044956
*RES
1 i_core\.u_digital:cmp_soft i_core\.u_trip:cmp_soft 482.62
2 i_core\.u_digital:cmp_soft ANTENNA_2:A 491.369
3 i_core\.u_digital:cmp_soft ANTENNA_3:A 492.002
*END

*D_NET i_core_dac_hard_0_ 0.144564
*CONN
*I i_core\.u_digital:dac_hard[0] O
*I i_core\.u_trip:dac_hard_0 I
*CAP
1 i_core\.u_digital:dac_hard[0] 0.072282
2 i_core\.u_trip:dac_hard_0 0.072282
*RES
1 i_core\.u_digital:dac_hard[0] i_core\.u_trip:dac_hard_0 209.787
*END

*D_NET i_core_dac_hard_1_ 0.141563
*CONN
*I i_core\.u_digital:dac_hard[1] O
*I i_core\.u_trip:dac_hard_1 I
*CAP
1 i_core\.u_digital:dac_hard[1] 0.0707815
2 i_core\.u_trip:dac_hard_1 0.0707815
*RES
1 i_core\.u_digital:dac_hard[1] i_core\.u_trip:dac_hard_1 210.906
*END

*D_NET i_core_dac_hard_2_ 0.13633
*CONN
*I i_core\.u_digital:dac_hard[2] O
*I i_core\.u_trip:dac_hard_2 I
*CAP
1 i_core\.u_digital:dac_hard[2] 0.068165
2 i_core\.u_trip:dac_hard_2 0.068165
*RES
1 i_core\.u_digital:dac_hard[2] i_core\.u_trip:dac_hard_2 246.92
*END

*D_NET i_core_dac_hard_3_ 0.094805
*CONN
*I i_core\.u_digital:dac_hard[3] O
*I i_core\.u_trip:dac_hard_3 I
*CAP
1 i_core\.u_digital:dac_hard[3] 0.0474025
2 i_core\.u_trip:dac_hard_3 0.0474025
*RES
1 i_core\.u_digital:dac_hard[3] i_core\.u_trip:dac_hard_3 232.521
*END

*D_NET i_core_dac_hard_4_ 0.107982
*CONN
*I i_core\.u_digital:dac_hard[4] O
*I i_core\.u_trip:dac_hard_4 I
*CAP
1 i_core\.u_digital:dac_hard[4] 0.053991
2 i_core\.u_trip:dac_hard_4 0.053991
*RES
1 i_core\.u_digital:dac_hard[4] i_core\.u_trip:dac_hard_4 221.109
*END

*D_NET i_core_dac_hard_5_ 0.086993
*CONN
*I i_core\.u_digital:dac_hard[5] O
*I i_core\.u_trip:dac_hard_5 I
*CAP
1 i_core\.u_digital:dac_hard[5] 0.0434965
2 i_core\.u_trip:dac_hard_5 0.0434965
*RES
1 i_core\.u_digital:dac_hard[5] i_core\.u_trip:dac_hard_5 222.639
*END

*D_NET i_core_dac_hard_6_ 0.056279
*CONN
*I i_core\.u_digital:dac_hard[6] O
*I i_core\.u_trip:dac_hard_6 I
*CAP
1 i_core\.u_digital:dac_hard[6] 0.0281395
2 i_core\.u_trip:dac_hard_6 0.0281395
*RES
1 i_core\.u_digital:dac_hard[6] i_core\.u_trip:dac_hard_6 221.558
*END

*D_NET i_core_dac_hard_7_ 0.057344
*CONN
*I i_core\.u_digital:dac_hard[7] O
*I i_core\.u_trip:dac_hard_7 I
*CAP
1 i_core\.u_digital:dac_hard[7] 0.028672
2 i_core\.u_trip:dac_hard_7 0.028672
*RES
1 i_core\.u_digital:dac_hard[7] i_core\.u_trip:dac_hard_7 209.186
*END

*D_NET i_core_dac_soft_0_ 0.068735
*CONN
*I i_core\.u_digital:dac_soft[0] O
*I i_core\.u_trip:dac_soft_0 I
*CAP
1 i_core\.u_digital:dac_soft[0] 0.0343675
2 i_core\.u_trip:dac_soft_0 0.0343675
*RES
1 i_core\.u_digital:dac_soft[0] i_core\.u_trip:dac_soft_0 107.508
*END

*D_NET i_core_dac_soft_1_ 0.061569
*CONN
*I i_core\.u_digital:dac_soft[1] O
*I i_core\.u_trip:dac_soft_1 I
*CAP
1 i_core\.u_digital:dac_soft[1] 0.0307845
2 i_core\.u_trip:dac_soft_1 0.0307845
*RES
1 i_core\.u_digital:dac_soft[1] i_core\.u_trip:dac_soft_1 127.683
*END

*D_NET i_core_dac_soft_2_ 0.04874
*CONN
*I i_core\.u_digital:dac_soft[2] O
*I i_core\.u_trip:dac_soft_2 I
*CAP
1 i_core\.u_digital:dac_soft[2] 0.02437
2 i_core\.u_trip:dac_soft_2 0.02437
*RES
1 i_core\.u_digital:dac_soft[2] i_core\.u_trip:dac_soft_2 129.333
*END

*D_NET i_core_dac_soft_3_ 0.07935
*CONN
*I i_core\.u_digital:dac_soft[3] O
*I i_core\.u_trip:dac_soft_3 I
*CAP
1 i_core\.u_digital:dac_soft[3] 0.039675
2 i_core\.u_trip:dac_soft_3 0.039675
*RES
1 i_core\.u_digital:dac_soft[3] i_core\.u_trip:dac_soft_3 126.733
*END

*D_NET i_core_dac_soft_4_ 0.04444
*CONN
*I i_core\.u_digital:dac_soft[4] O
*I i_core\.u_trip:dac_soft_4 I
*CAP
1 i_core\.u_digital:dac_soft[4] 0.02222
2 i_core\.u_trip:dac_soft_4 0.02222
*RES
1 i_core\.u_digital:dac_soft[4] i_core\.u_trip:dac_soft_4 102.062
*END

*D_NET i_core_dac_soft_5_ 0.048517
*CONN
*I i_core\.u_digital:dac_soft[5] O
*I i_core\.u_trip:dac_soft_5 I
*CAP
1 i_core\.u_digital:dac_soft[5] 0.0242585
2 i_core\.u_trip:dac_soft_5 0.0242585
*RES
1 i_core\.u_digital:dac_soft[5] i_core\.u_trip:dac_soft_5 103.351
*END

*D_NET i_core_dac_soft_6_ 0.022005
*CONN
*I i_core\.u_digital:dac_soft[6] O
*I i_core\.u_trip:dac_soft_6 I
*CAP
1 i_core\.u_digital:dac_soft[6] 0.0110025
2 i_core\.u_trip:dac_soft_6 0.0110025
*RES
1 i_core\.u_digital:dac_soft[6] i_core\.u_trip:dac_soft_6 59.983
*END

*D_NET i_core_dac_soft_7_ 0.064289
*CONN
*I i_core\.u_digital:dac_soft[7] O
*I i_core\.u_trip:dac_soft_7 I
*CAP
1 i_core\.u_digital:dac_soft[7] 0.0321445
2 i_core\.u_trip:dac_soft_7 0.0321445
*RES
1 i_core\.u_digital:dac_soft[7] i_core\.u_trip:dac_soft_7 104.389
*END

*D_NET i_core_fast_en 0.011986
*CONN
*I i_core\.u_digital:fast_en O
*I i_core\.u_gate:fast_en I
*CAP
1 i_core\.u_digital:fast_en 0.005993
2 i_core\.u_gate:fast_en 0.005993
*RES
1 i_core\.u_digital:fast_en i_core\.u_gate:fast_en 58.877
*END

*D_NET i_core_fault_n_dig 0
*CONN
*I i_core\.u_digital:fault_n O
*END

*D_NET i_core_gate_en 0
*CONN
*I i_core\.u_digital:gate_en O
*END

*D_NET i_core_osc_clk 0.145034
*CONN
*I i_core\.u_osc:osc_clk O
*I i_core\.u_digital:osc_clk I
*CAP
1 i_core\.u_digital:osc_clk 0.072517
2 i_core\.u_osc:osc_clk 0.072517
*RES
1 i_core\.u_digital:osc_clk i_core\.u_osc:osc_clk 414.681
*END

*D_NET i_core_osc_en 0.096888
*CONN
*I i_core\.u_digital:osc_en O
*I i_core\.u_osc:en I
*CAP
1 i_core\.u_digital:osc_en 0.048444
2 i_core\.u_osc:en 0.048444
*RES
1 i_core\.u_digital:osc_en i_core\.u_osc:en 243.669
*END

*D_NET i_core_osc_trim_0_ 0.092356
*CONN
*I i_core\.u_digital:osc_trim[0] O
*I i_core\.u_osc:trim_0 I
*CAP
1 i_core\.u_digital:osc_trim[0] 0.046178
2 i_core\.u_osc:trim_0 0.046178
*RES
1 i_core\.u_digital:osc_trim[0] i_core\.u_osc:trim_0 217.896
*END

*D_NET i_core_osc_trim_1_ 0.116396
*CONN
*I i_core\.u_digital:osc_trim[1] O
*I i_core\.u_osc:trim_1 I
*CAP
1 i_core\.u_digital:osc_trim[1] 0.058198
2 i_core\.u_osc:trim_1 0.058198
*RES
1 i_core\.u_digital:osc_trim[1] i_core\.u_osc:trim_1 242.502
*END

*D_NET i_core_osc_trim_2_ 0.042383
*CONN
*I i_core\.u_digital:osc_trim[2] O
*I i_core\.u_osc:trim_2 I
*CAP
1 i_core\.u_digital:osc_trim[2] 0.0211915
2 i_core\.u_osc:trim_2 0.0211915
*RES
1 i_core\.u_digital:osc_trim[2] i_core\.u_osc:trim_2 221.205
*END

*D_NET i_core_osc_trim_3_ 0.132083
*CONN
*I i_core\.u_digital:osc_trim[3] O
*I i_core\.u_osc:trim_3 I
*CAP
1 i_core\.u_digital:osc_trim[3] 0.0660415
2 i_core\.u_osc:trim_3 0.0660415
*RES
1 i_core\.u_digital:osc_trim[3] i_core\.u_osc:trim_3 246.11
*END

*D_NET i_core_sclk_i 0.161436
*CONN
*I pad14_sclk:p2c O
*I i_core\.u_digital:sclk I
*CAP
1 i_core\.u_digital:sclk 0.080718
2 pad14_sclk:p2c 0.080718
*RES
1 i_core\.u_digital:sclk pad14_sclk:p2c 409.655
*END

*D_NET i_core_sdi_i 0.168912
*CONN
*I pad15_sdi:p2c O
*I ANTENNA_4:A I
*I i_core\.u_digital:sdi I
*CAP
1 i_core\.u_digital:sdi 0.084456
2 pad15_sdi:p2c 0.042228
3 ANTENNA_4:A 0.042228
*RES
1 i_core\.u_digital:sdi pad15_sdi:p2c 383.137
2 i_core\.u_digital:sdi ANTENNA_4:A 704.325
*END

*D_NET i_core_sdo_o 0.08184
*CONN
*I i_core\.u_digital:sdo O
*I pad16_sdo:c2p I
*CAP
1 i_core\.u_digital:sdo 0.04092
2 i_core_sdo_o:1 0.04092
*RES
1 i_core\.u_digital:sdo i_core_sdo_o:1 72.1
2 i_core_sdo_o:1 pad16_sdo:c2p 0.001
*END

*D_NET i_core_t2f_en_12 0.029093
*CONN
*I i_core\.u_digital:t2f_en O
*I i_core\.u_ls_en:in I
*CAP
1 i_core\.u_digital:t2f_en 0.0145465
2 i_core\.u_ls_en:in 0.0145465
*RES
1 i_core\.u_digital:t2f_en i_core\.u_ls_en:in 57.602
*END

*D_NET i_core_t2f_en_33 0.182359
*CONN
*I i_core\.u_ls_en:out O
*I i_core\.u_t2f:en I
*CAP
1 i_core\.u_ls_en:out 0.0911795
2 i_core\.u_t2f:en 0.0911795
*RES
1 i_core\.u_ls_en:out i_core\.u_t2f:en 451.205
*END

*D_NET i_core_t2f_mode_12 0.032093
*CONN
*I i_core\.u_digital:t2f_mode O
*I i_core\.u_ls_mode:in I
*CAP
1 i_core\.u_digital:t2f_mode 0.0160465
2 i_core\.u_ls_mode:in 0.0160465
*RES
1 i_core\.u_digital:t2f_mode i_core\.u_ls_mode:in 92.457
*END

*D_NET i_core_t2f_mode_33 0.167271
*CONN
*I i_core\.u_ls_mode:out O
*I i_core\.u_t2f:mode I
*CAP
1 i_core\.u_ls_mode:out 0.0836355
2 i_core\.u_t2f:mode 0.0836355
*RES
1 i_core\.u_ls_mode:out i_core\.u_t2f:mode 386.19
*END

*D_NET i_core_temp_out_o 0.027095
*CONN
*I i_core\.u_t2f:fout O
*I pad17_temp_out:c2p I
*CAP
1 i_core\.u_t2f:fout 0.0135475
2 i_core_temp_out_o:1 0.0135475
*RES
1 i_core\.u_t2f:fout i_core_temp_out_o:1 126.5
2 i_core_temp_out_o:1 pad17_temp_out:c2p 0.001
*END

*D_NET i_core_trip 0
*CONN
*I i_core\.u_digital:trip O
*END

*D_NET i_core_trip_cause_0_ 0
*CONN
*I i_core\.u_digital:trip_cause[0] O
*END

*D_NET i_core_trip_cause_1_ 0
*CONN
*I i_core\.u_digital:trip_cause[1] O
*END

*D_NET i_core_trip_d 0.026194
*CONN
*I i_core\.u_digital:trip_d O
*I i_core\.u_gate:trip_d I
*CAP
1 i_core\.u_digital:trip_d 0.013097
2 i_core\.u_gate:trip_d 0.013097
*RES
1 i_core\.u_digital:trip_d i_core\.u_gate:trip_d 55.695
*END

*D_NET i_core_trip_set_sel 0
*CONN
*I i_core\.u_digital:trip_set_sel O
*END

*D_NET i_core_tripped 0.143246
*CONN
*I i_core\.u_gate:tripped O
*I ANTENNA_5:A I
*I ANTENNA_6:A I
*I i_core\.u_digital:tripped I
*CAP
1 i_core\.u_digital:tripped 0.071623
2 i_core\.u_gate:tripped 0.0238743
3 ANTENNA_5:A 0.0238743
4 ANTENNA_6:A 0.0238743
*RES
1 i_core\.u_digital:tripped i_core\.u_gate:tripped 82.389
2 i_core\.u_digital:tripped ANTENNA_5:A 350.724
3 i_core\.u_digital:tripped ANTENNA_6:A 350.724
*END

*D_NET i_core_vref 0.171165
*CONN
*I pad18_vref:padres B
*CAP
1 pad18_vref:padres 0.0855825
2 i_core_vref:1 0.0855825
*RES
1 pad18_vref:padres i_core_vref:1 447.1
*END

*D_NET net 0.112042
*CONN
*I i_core\.u_digital_1:L_HI O
*I i_core\.u_digital:por_n I
*CAP
1 i_core\.u_digital:por_n 0.056021
2 i_core\.u_digital_1:L_HI 0.056021
*RES
1 i_core\.u_digital:por_n i_core\.u_digital_1:L_HI 323.363
*END

