*SPEF "ieee 1481-1999"
*DESIGN "g1_chip_top"
*DATE "06:49:31 Wednesday September 23, 2026"
*VENDOR "The OpenROAD Project"
*PROGRAM "OpenROAD"
*VERSION "26Q1-1024-gdcf36133a"
*DESIGN_FLOW "NAME_SCOPE LOCAL" "PIN_CAP NONE"
*DIVIDER /
*DELIMITER :
*BUS_DELIMITER []
*T_UNIT 1 NS
*C_UNIT 1 PF
*R_UNIT 1 OHM
*L_UNIT 1 HENRY

*NAME_MAP
*1 D_ELT
*2 D_STD
*3 EN
*4 FAULT_N
*5 GATE
*6 G_SHARED
*7 HBT_B
*8 HBT_C
*9 HBT_E
*12 SCLK
*13 SDI
*14 SDO
*15 SENSE_N
*16 SENSE_P
*17 TEMP_OUT
*18 TRIP_SET
*21 VREF
*23 d_elt_bare
*24 d_std_bare
*25 en_i
*26 fault_n_o
*27 g_shared_bare
*28 gate_o
*29 hbt_b_bare
*30 hbt_c_bare
*31 hbt_e_bare
*32 i_core\.bgr_r4_12
*33 i_core\.bgr_r4_33
*34 i_core\.clk_div_out
*35 i_core\.clr_d
*36 i_core\.cmp_clk
*37 i_core\.cmp_hard
*38 i_core\.cmp_soft
*39 i_core\.dac_hard\[0\]
*40 i_core\.dac_hard\[1\]
*41 i_core\.dac_hard\[2\]
*42 i_core\.dac_hard\[3\]
*43 i_core\.dac_hard\[4\]
*44 i_core\.dac_hard\[5\]
*45 i_core\.dac_hard\[6\]
*46 i_core\.dac_hard\[7\]
*47 i_core\.dac_soft\[0\]
*48 i_core\.dac_soft\[1\]
*49 i_core\.dac_soft\[2\]
*50 i_core\.dac_soft\[3\]
*51 i_core\.dac_soft\[4\]
*52 i_core\.dac_soft\[5\]
*53 i_core\.dac_soft\[6\]
*54 i_core\.dac_soft\[7\]
*55 i_core\.dvbe
*56 i_core\.fast_en
*57 i_core\.fault_n_dig
*58 i_core\.gate_en
*59 i_core\.iptat
*60 i_core\.isense
*61 i_core\.osc_clk
*62 i_core\.osc_en
*63 i_core\.osc_trim\[0\]
*64 i_core\.osc_trim\[1\]
*65 i_core\.osc_trim\[2\]
*66 i_core\.osc_trim\[3\]
*67 i_core\.pbias
*68 i_core\.pcasc
*69 i_core\.sclk_i
*70 i_core\.sdi_i
*71 i_core\.sdo_o
*72 i_core\.sense_n
*73 i_core\.sense_p
*74 i_core\.t2f_en_12
*75 i_core\.t2f_en_33
*76 i_core\.t2f_mode_12
*77 i_core\.t2f_mode_33
*78 i_core\.temp_out_o
*79 i_core\.trip
*80 i_core\.trip_cause\[0\]
*81 i_core\.trip_cause\[1\]
*82 i_core\.trip_d
*83 i_core\.trip_set
*84 i_core\.trip_set_sel
*85 i_core\.tripped
*86 i_core\.unused_vbe
*87 i_core\.unused_vped
*88 i_core\.vref
*89 i_core\.vref_buf
*90 net
*91 ANTENNA_1
*92 ANTENNA_2
*93 ANTENNA_3
*94 ANTENNA_4
*95 ANTENNA_5
*96 ANTENNA_6
*97 FILLER_0_1006
*98 FILLER_0_1013
*99 FILLER_0_1020
*100 FILLER_0_1027
*101 FILLER_0_103
*102 FILLER_0_1034
*103 FILLER_0_1041
*104 FILLER_0_1048
*105 FILLER_0_1055
*106 FILLER_0_1062
*107 FILLER_0_1069
*108 FILLER_0_1076
*109 FILLER_0_1083
*110 FILLER_0_1090
*111 FILLER_0_1097
*112 FILLER_0_110
*113 FILLER_0_1104
*114 FILLER_0_1111
*115 FILLER_0_1118
*116 FILLER_0_1125
*117 FILLER_0_1132
*118 FILLER_0_1139
*119 FILLER_0_1146
*120 FILLER_0_1153
*121 FILLER_0_1160
*122 FILLER_0_1167
*123 FILLER_0_117
*124 FILLER_0_1174
*125 FILLER_0_1181
*126 FILLER_0_1188
*127 FILLER_0_1195
*128 FILLER_0_1202
*129 FILLER_0_1209
*130 FILLER_0_1216
*131 FILLER_0_1223
*132 FILLER_0_1230
*133 FILLER_0_1237
*134 FILLER_0_124
*135 FILLER_0_1244
*136 FILLER_0_1251
*137 FILLER_0_1258
*138 FILLER_0_1265
*139 FILLER_0_1272
*140 FILLER_0_1279
*141 FILLER_0_1286
*142 FILLER_0_1293
*143 FILLER_0_131
*144 FILLER_0_138
*145 FILLER_0_145
*146 FILLER_0_152
*147 FILLER_0_159
*148 FILLER_0_166
*149 FILLER_0_173
*150 FILLER_0_180
*151 FILLER_0_187
*152 FILLER_0_194
*153 FILLER_0_201
*154 FILLER_0_208
*155 FILLER_0_215
*156 FILLER_0_222
*157 FILLER_0_229
*158 FILLER_0_236
*159 FILLER_0_243
*160 FILLER_0_250
*161 FILLER_0_257
*162 FILLER_0_264
*163 FILLER_0_271
*164 FILLER_0_278
*165 FILLER_0_285
*166 FILLER_0_292
*167 FILLER_0_299
*168 FILLER_0_306
*169 FILLER_0_313
*170 FILLER_0_320
*171 FILLER_0_327
*172 FILLER_0_334
*173 FILLER_0_341
*174 FILLER_0_348
*175 FILLER_0_355
*176 FILLER_0_362
*177 FILLER_0_369
*178 FILLER_0_376
*179 FILLER_0_383
*180 FILLER_0_390
*181 FILLER_0_397
*182 FILLER_0_404
*183 FILLER_0_411
*184 FILLER_0_418
*185 FILLER_0_425
*186 FILLER_0_432
*187 FILLER_0_439
*188 FILLER_0_446
*189 FILLER_0_453
*190 FILLER_0_460
*191 FILLER_0_467
*192 FILLER_0_474
*193 FILLER_0_481
*194 FILLER_0_488
*195 FILLER_0_495
*196 FILLER_0_502
*197 FILLER_0_509
*198 FILLER_0_516
*199 FILLER_0_523
*200 FILLER_0_530
*201 FILLER_0_537
*202 FILLER_0_544
*203 FILLER_0_551
*204 FILLER_0_558
*205 FILLER_0_565
*206 FILLER_0_572
*207 FILLER_0_579
*208 FILLER_0_586
*209 FILLER_0_593
*210 FILLER_0_600
*211 FILLER_0_607
*212 FILLER_0_614
*213 FILLER_0_621
*214 FILLER_0_628
*215 FILLER_0_635
*216 FILLER_0_642
*217 FILLER_0_649
*218 FILLER_0_656
*219 FILLER_0_663
*220 FILLER_0_670
*221 FILLER_0_677
*222 FILLER_0_684
*223 FILLER_0_691
*224 FILLER_0_698
*225 FILLER_0_705
*226 FILLER_0_712
*227 FILLER_0_719
*228 FILLER_0_726
*229 FILLER_0_733
*230 FILLER_0_740
*231 FILLER_0_747
*232 FILLER_0_754
*233 FILLER_0_761
*234 FILLER_0_768
*235 FILLER_0_775
*236 FILLER_0_782
*237 FILLER_0_789
*238 FILLER_0_796
*239 FILLER_0_803
*240 FILLER_0_810
*241 FILLER_0_817
*242 FILLER_0_824
*243 FILLER_0_831
*244 FILLER_0_838
*245 FILLER_0_845
*246 FILLER_0_852
*247 FILLER_0_859
*248 FILLER_0_866
*249 FILLER_0_873
*250 FILLER_0_880
*251 FILLER_0_887
*252 FILLER_0_89
*253 FILLER_0_894
*254 FILLER_0_901
*255 FILLER_0_908
*256 FILLER_0_915
*257 FILLER_0_922
*258 FILLER_0_929
*259 FILLER_0_936
*260 FILLER_0_943
*261 FILLER_0_950
*262 FILLER_0_957
*263 FILLER_0_96
*264 FILLER_0_964
*265 FILLER_0_971
*266 FILLER_0_978
*267 FILLER_0_985
*268 FILLER_0_992
*269 FILLER_0_999
*270 FILLER_10_1001
*271 FILLER_10_1008
*272 FILLER_10_1015
*273 FILLER_10_1022
*274 FILLER_10_1029
*275 FILLER_10_1036
*276 FILLER_10_1043
*277 FILLER_10_1050
*278 FILLER_10_1057
*279 FILLER_10_1064
*280 FILLER_10_1071
*281 FILLER_10_1078
*282 FILLER_10_1085
*283 FILLER_10_1092
*284 FILLER_10_1099
*285 FILLER_10_1106
*286 FILLER_10_1113
*287 FILLER_10_1120
*288 FILLER_10_1127
*289 FILLER_10_1134
*290 FILLER_10_1141
*291 FILLER_10_1148
*292 FILLER_10_1155
*293 FILLER_10_1162
*294 FILLER_10_1169
*295 FILLER_10_1176
*296 FILLER_10_1183
*297 FILLER_10_1190
*298 FILLER_10_1197
*299 FILLER_10_1204
*300 FILLER_10_1211
*301 FILLER_10_1218
*302 FILLER_10_1225
*303 FILLER_10_1232
*304 FILLER_10_1239
*305 FILLER_10_1246
*306 FILLER_10_1253
*307 FILLER_10_1260
*308 FILLER_10_1267
*309 FILLER_10_1274
*310 FILLER_10_1281
*311 FILLER_10_1288
*312 FILLER_10_777
*313 FILLER_10_784
*314 FILLER_10_791
*315 FILLER_10_798
*316 FILLER_10_805
*317 FILLER_10_812
*318 FILLER_10_819
*319 FILLER_10_826
*320 FILLER_10_833
*321 FILLER_10_840
*322 FILLER_10_847
*323 FILLER_10_854
*324 FILLER_10_861
*325 FILLER_10_868
*326 FILLER_10_875
*327 FILLER_10_882
*328 FILLER_10_889
*329 FILLER_10_896
*330 FILLER_10_903
*331 FILLER_10_910
*332 FILLER_10_917
*333 FILLER_10_924
*334 FILLER_10_931
*335 FILLER_10_938
*336 FILLER_10_945
*337 FILLER_10_952
*338 FILLER_10_959
*339 FILLER_10_966
*340 FILLER_10_973
*341 FILLER_10_980
*342 FILLER_10_987
*343 FILLER_10_994
*344 FILLER_11_1001
*345 FILLER_11_1008
*346 FILLER_11_1015
*347 FILLER_11_1022
*348 FILLER_11_1029
*349 FILLER_11_1036
*350 FILLER_11_1043
*351 FILLER_11_1050
*352 FILLER_11_1057
*353 FILLER_11_1064
*354 FILLER_11_1071
*355 FILLER_11_1078
*356 FILLER_11_1085
*357 FILLER_11_1092
*358 FILLER_11_1099
*359 FILLER_11_1106
*360 FILLER_11_1113
*361 FILLER_11_1120
*362 FILLER_11_1127
*363 FILLER_11_1134
*364 FILLER_11_1141
*365 FILLER_11_1148
*366 FILLER_11_1155
*367 FILLER_11_1162
*368 FILLER_11_1169
*369 FILLER_11_1176
*370 FILLER_11_1183
*371 FILLER_11_1190
*372 FILLER_11_1197
*373 FILLER_11_1204
*374 FILLER_11_1211
*375 FILLER_11_1218
*376 FILLER_11_1225
*377 FILLER_11_1232
*378 FILLER_11_1239
*379 FILLER_11_1246
*380 FILLER_11_1253
*381 FILLER_11_1260
*382 FILLER_11_1267
*383 FILLER_11_1274
*384 FILLER_11_1281
*385 FILLER_11_1288
*386 FILLER_11_777
*387 FILLER_11_784
*388 FILLER_11_791
*389 FILLER_11_798
*390 FILLER_11_805
*391 FILLER_11_812
*392 FILLER_11_819
*393 FILLER_11_826
*394 FILLER_11_833
*395 FILLER_11_840
*396 FILLER_11_847
*397 FILLER_11_854
*398 FILLER_11_861
*399 FILLER_11_868
*400 FILLER_11_875
*401 FILLER_11_882
*402 FILLER_11_889
*403 FILLER_11_896
*404 FILLER_11_903
*405 FILLER_11_910
*406 FILLER_11_917
*407 FILLER_11_924
*408 FILLER_11_931
*409 FILLER_11_938
*410 FILLER_11_945
*411 FILLER_11_952
*412 FILLER_11_959
*413 FILLER_11_966
*414 FILLER_11_973
*415 FILLER_11_980
*416 FILLER_11_987
*417 FILLER_11_994
*418 FILLER_12_1001
*419 FILLER_12_1008
*420 FILLER_12_1015
*421 FILLER_12_1022
*422 FILLER_12_1029
*423 FILLER_12_1036
*424 FILLER_12_1043
*425 FILLER_12_1050
*426 FILLER_12_1057
*427 FILLER_12_1064
*428 FILLER_12_1071
*429 FILLER_12_1078
*430 FILLER_12_1085
*431 FILLER_12_1092
*432 FILLER_12_1099
*433 FILLER_12_1106
*434 FILLER_12_1113
*435 FILLER_12_1120
*436 FILLER_12_1127
*437 FILLER_12_1134
*438 FILLER_12_1141
*439 FILLER_12_1148
*440 FILLER_12_1155
*441 FILLER_12_1162
*442 FILLER_12_1169
*443 FILLER_12_1176
*444 FILLER_12_1183
*445 FILLER_12_1190
*446 FILLER_12_1197
*447 FILLER_12_1204
*448 FILLER_12_1211
*449 FILLER_12_1218
*450 FILLER_12_1225
*451 FILLER_12_1232
*452 FILLER_12_1239
*453 FILLER_12_1246
*454 FILLER_12_1253
*455 FILLER_12_1260
*456 FILLER_12_1267
*457 FILLER_12_1274
*458 FILLER_12_1281
*459 FILLER_12_1288
*460 FILLER_12_777
*461 FILLER_12_784
*462 FILLER_12_791
*463 FILLER_12_798
*464 FILLER_12_805
*465 FILLER_12_812
*466 FILLER_12_819
*467 FILLER_12_826
*468 FILLER_12_833
*469 FILLER_12_840
*470 FILLER_12_847
*471 FILLER_12_854
*472 FILLER_12_861
*473 FILLER_12_868
*474 FILLER_12_875
*475 FILLER_12_882
*476 FILLER_12_889
*477 FILLER_12_896
*478 FILLER_12_903
*479 FILLER_12_910
*480 FILLER_12_917
*481 FILLER_12_924
*482 FILLER_12_931
*483 FILLER_12_938
*484 FILLER_12_945
*485 FILLER_12_952
*486 FILLER_12_959
*487 FILLER_12_966
*488 FILLER_12_973
*489 FILLER_12_980
*490 FILLER_12_987
*491 FILLER_12_994
*492 FILLER_13_1001
*493 FILLER_13_1008
*494 FILLER_13_1015
*495 FILLER_13_1022
*496 FILLER_13_1029
*497 FILLER_13_1036
*498 FILLER_13_1043
*499 FILLER_13_1050
*500 FILLER_13_1057
*501 FILLER_13_1064
*502 FILLER_13_1071
*503 FILLER_13_1078
*504 FILLER_13_1085
*505 FILLER_13_1092
*506 FILLER_13_1099
*507 FILLER_13_1106
*508 FILLER_13_1113
*509 FILLER_13_1120
*510 FILLER_13_1127
*511 FILLER_13_1134
*512 FILLER_13_1141
*513 FILLER_13_1148
*514 FILLER_13_1155
*515 FILLER_13_1162
*516 FILLER_13_1169
*517 FILLER_13_1176
*518 FILLER_13_1183
*519 FILLER_13_1190
*520 FILLER_13_1197
*521 FILLER_13_1204
*522 FILLER_13_1211
*523 FILLER_13_1218
*524 FILLER_13_1225
*525 FILLER_13_1232
*526 FILLER_13_1239
*527 FILLER_13_1246
*528 FILLER_13_1253
*529 FILLER_13_1260
*530 FILLER_13_1267
*531 FILLER_13_1274
*532 FILLER_13_1281
*533 FILLER_13_1288
*534 FILLER_13_777
*535 FILLER_13_784
*536 FILLER_13_791
*537 FILLER_13_798
*538 FILLER_13_805
*539 FILLER_13_812
*540 FILLER_13_819
*541 FILLER_13_826
*542 FILLER_13_833
*543 FILLER_13_840
*544 FILLER_13_847
*545 FILLER_13_854
*546 FILLER_13_861
*547 FILLER_13_868
*548 FILLER_13_875
*549 FILLER_13_882
*550 FILLER_13_889
*551 FILLER_13_896
*552 FILLER_13_903
*553 FILLER_13_910
*554 FILLER_13_917
*555 FILLER_13_924
*556 FILLER_13_931
*557 FILLER_13_938
*558 FILLER_13_945
*559 FILLER_13_952
*560 FILLER_13_959
*561 FILLER_13_966
*562 FILLER_13_973
*563 FILLER_13_980
*564 FILLER_13_987
*565 FILLER_13_994
*566 FILLER_14_1001
*567 FILLER_14_1008
*568 FILLER_14_1015
*569 FILLER_14_1022
*570 FILLER_14_1029
*571 FILLER_14_1036
*572 FILLER_14_1043
*573 FILLER_14_1050
*574 FILLER_14_1057
*575 FILLER_14_1064
*576 FILLER_14_1071
*577 FILLER_14_1078
*578 FILLER_14_1085
*579 FILLER_14_1092
*580 FILLER_14_1099
*581 FILLER_14_1106
*582 FILLER_14_1113
*583 FILLER_14_1120
*584 FILLER_14_1127
*585 FILLER_14_1134
*586 FILLER_14_1141
*587 FILLER_14_1148
*588 FILLER_14_1155
*589 FILLER_14_1162
*590 FILLER_14_1169
*591 FILLER_14_1176
*592 FILLER_14_1183
*593 FILLER_14_1190
*594 FILLER_14_1197
*595 FILLER_14_1204
*596 FILLER_14_1211
*597 FILLER_14_1218
*598 FILLER_14_1225
*599 FILLER_14_1232
*600 FILLER_14_1239
*601 FILLER_14_1246
*602 FILLER_14_1253
*603 FILLER_14_1260
*604 FILLER_14_1267
*605 FILLER_14_1274
*606 FILLER_14_1281
*607 FILLER_14_1288
*608 FILLER_14_777
*609 FILLER_14_784
*610 FILLER_14_791
*611 FILLER_14_798
*612 FILLER_14_805
*613 FILLER_14_812
*614 FILLER_14_819
*615 FILLER_14_826
*616 FILLER_14_833
*617 FILLER_14_840
*618 FILLER_14_847
*619 FILLER_14_854
*620 FILLER_14_861
*621 FILLER_14_868
*622 FILLER_14_875
*623 FILLER_14_882
*624 FILLER_14_889
*625 FILLER_14_896
*626 FILLER_14_903
*627 FILLER_14_910
*628 FILLER_14_917
*629 FILLER_14_924
*630 FILLER_14_931
*631 FILLER_14_938
*632 FILLER_14_945
*633 FILLER_14_952
*634 FILLER_14_959
*635 FILLER_14_966
*636 FILLER_14_973
*637 FILLER_14_980
*638 FILLER_14_987
*639 FILLER_14_994
*640 FILLER_15_1001
*641 FILLER_15_1008
*642 FILLER_15_1015
*643 FILLER_15_1022
*644 FILLER_15_1029
*645 FILLER_15_1036
*646 FILLER_15_1043
*647 FILLER_15_1050
*648 FILLER_15_1057
*649 FILLER_15_1064
*650 FILLER_15_1071
*651 FILLER_15_1078
*652 FILLER_15_1085
*653 FILLER_15_1092
*654 FILLER_15_1099
*655 FILLER_15_1106
*656 FILLER_15_1113
*657 FILLER_15_1120
*658 FILLER_15_1127
*659 FILLER_15_1134
*660 FILLER_15_1141
*661 FILLER_15_1148
*662 FILLER_15_1155
*663 FILLER_15_1162
*664 FILLER_15_1169
*665 FILLER_15_1176
*666 FILLER_15_1183
*667 FILLER_15_1190
*668 FILLER_15_1197
*669 FILLER_15_1204
*670 FILLER_15_1211
*671 FILLER_15_1218
*672 FILLER_15_1225
*673 FILLER_15_1232
*674 FILLER_15_1239
*675 FILLER_15_1246
*676 FILLER_15_1253
*677 FILLER_15_1260
*678 FILLER_15_1267
*679 FILLER_15_1274
*680 FILLER_15_1281
*681 FILLER_15_1288
*682 FILLER_15_777
*683 FILLER_15_784
*684 FILLER_15_791
*685 FILLER_15_798
*686 FILLER_15_805
*687 FILLER_15_812
*688 FILLER_15_819
*689 FILLER_15_826
*690 FILLER_15_833
*691 FILLER_15_840
*692 FILLER_15_847
*693 FILLER_15_854
*694 FILLER_15_861
*695 FILLER_15_868
*696 FILLER_15_875
*697 FILLER_15_882
*698 FILLER_15_889
*699 FILLER_15_896
*700 FILLER_15_903
*701 FILLER_15_910
*702 FILLER_15_917
*703 FILLER_15_924
*704 FILLER_15_931
*705 FILLER_15_938
*706 FILLER_15_945
*707 FILLER_15_952
*708 FILLER_15_959
*709 FILLER_15_966
*710 FILLER_15_973
*711 FILLER_15_980
*712 FILLER_15_987
*713 FILLER_15_994
*714 FILLER_17_0
*715 FILLER_17_103
*716 FILLER_17_110
*717 FILLER_17_117
*718 FILLER_17_12
*719 FILLER_17_124
*720 FILLER_17_131
*721 FILLER_17_138
*722 FILLER_17_145
*723 FILLER_17_152
*724 FILLER_17_159
*725 FILLER_17_166
*726 FILLER_17_173
*727 FILLER_17_180
*728 FILLER_17_187
*729 FILLER_17_19
*730 FILLER_17_194
*731 FILLER_17_2
*732 FILLER_17_201
*733 FILLER_17_208
*734 FILLER_17_215
*735 FILLER_17_222
*736 FILLER_17_229
*737 FILLER_17_236
*738 FILLER_17_243
*739 FILLER_17_250
*740 FILLER_17_257
*741 FILLER_17_26
*742 FILLER_17_264
*743 FILLER_17_271
*744 FILLER_17_278
*745 FILLER_17_285
*746 FILLER_17_292
*747 FILLER_17_299
*748 FILLER_17_306
*749 FILLER_17_313
*750 FILLER_17_320
*751 FILLER_17_327
*752 FILLER_17_33
*753 FILLER_17_334
*754 FILLER_17_341
*755 FILLER_17_348
*756 FILLER_17_355
*757 FILLER_17_362
*758 FILLER_17_369
*759 FILLER_17_376
*760 FILLER_17_383
*761 FILLER_17_390
*762 FILLER_17_397
*763 FILLER_17_40
*764 FILLER_17_404
*765 FILLER_17_411
*766 FILLER_17_418
*767 FILLER_17_425
*768 FILLER_17_432
*769 FILLER_17_439
*770 FILLER_17_446
*771 FILLER_17_453
*772 FILLER_17_460
*773 FILLER_17_467
*774 FILLER_17_47
*775 FILLER_17_474
*776 FILLER_17_481
*777 FILLER_17_488
*778 FILLER_17_495
*779 FILLER_17_502
*780 FILLER_17_509
*781 FILLER_17_516
*782 FILLER_17_523
*783 FILLER_17_530
*784 FILLER_17_537
*785 FILLER_17_54
*786 FILLER_17_544
*787 FILLER_17_551
*788 FILLER_17_558
*789 FILLER_17_565
*790 FILLER_17_572
*791 FILLER_17_579
*792 FILLER_17_586
*793 FILLER_17_593
*794 FILLER_17_600
*795 FILLER_17_607
*796 FILLER_17_61
*797 FILLER_17_614
*798 FILLER_17_621
*799 FILLER_17_628
*800 FILLER_17_635
*801 FILLER_17_642
*802 FILLER_17_649
*803 FILLER_17_656
*804 FILLER_17_663
*805 FILLER_17_670
*806 FILLER_17_677
*807 FILLER_17_68
*808 FILLER_17_684
*809 FILLER_17_691
*810 FILLER_17_698
*811 FILLER_17_705
*812 FILLER_17_712
*813 FILLER_17_719
*814 FILLER_17_726
*815 FILLER_17_733
*816 FILLER_17_740
*817 FILLER_17_744
*818 FILLER_17_75
*819 FILLER_17_82
*820 FILLER_17_89
*821 FILLER_17_96
*822 FILLER_18_0
*823 FILLER_18_105
*824 FILLER_18_112
*825 FILLER_18_119
*826 FILLER_18_126
*827 FILLER_18_133
*828 FILLER_18_14
*829 FILLER_18_140
*830 FILLER_18_147
*831 FILLER_18_154
*832 FILLER_18_161
*833 FILLER_18_168
*834 FILLER_18_175
*835 FILLER_18_182
*836 FILLER_18_189
*837 FILLER_18_196
*838 FILLER_18_203
*839 FILLER_18_21
*840 FILLER_18_210
*841 FILLER_18_217
*842 FILLER_18_224
*843 FILLER_18_231
*844 FILLER_18_238
*845 FILLER_18_245
*846 FILLER_18_252
*847 FILLER_18_259
*848 FILLER_18_266
*849 FILLER_18_273
*850 FILLER_18_28
*851 FILLER_18_280
*852 FILLER_18_287
*853 FILLER_18_294
*854 FILLER_18_301
*855 FILLER_18_308
*856 FILLER_18_315
*857 FILLER_18_322
*858 FILLER_18_329
*859 FILLER_18_336
*860 FILLER_18_343
*861 FILLER_18_35
*862 FILLER_18_350
*863 FILLER_18_357
*864 FILLER_18_364
*865 FILLER_18_371
*866 FILLER_18_378
*867 FILLER_18_385
*868 FILLER_18_392
*869 FILLER_18_399
*870 FILLER_18_406
*871 FILLER_18_413
*872 FILLER_18_42
*873 FILLER_18_420
*874 FILLER_18_427
*875 FILLER_18_434
*876 FILLER_18_441
*877 FILLER_18_448
*878 FILLER_18_455
*879 FILLER_18_462
*880 FILLER_18_469
*881 FILLER_18_476
*882 FILLER_18_483
*883 FILLER_18_49
*884 FILLER_18_490
*885 FILLER_18_497
*886 FILLER_18_504
*887 FILLER_18_511
*888 FILLER_18_518
*889 FILLER_18_525
*890 FILLER_18_532
*891 FILLER_18_539
*892 FILLER_18_546
*893 FILLER_18_553
*894 FILLER_18_56
*895 FILLER_18_560
*896 FILLER_18_567
*897 FILLER_18_574
*898 FILLER_18_581
*899 FILLER_18_588
*900 FILLER_18_595
*901 FILLER_18_602
*902 FILLER_18_609
*903 FILLER_18_616
*904 FILLER_18_623
*905 FILLER_18_63
*906 FILLER_18_630
*907 FILLER_18_637
*908 FILLER_18_644
*909 FILLER_18_651
*910 FILLER_18_658
*911 FILLER_18_665
*912 FILLER_18_672
*913 FILLER_18_679
*914 FILLER_18_686
*915 FILLER_18_693
*916 FILLER_18_7
*917 FILLER_18_70
*918 FILLER_18_700
*919 FILLER_18_707
*920 FILLER_18_714
*921 FILLER_18_721
*922 FILLER_18_728
*923 FILLER_18_735
*924 FILLER_18_742
*925 FILLER_18_749
*926 FILLER_18_751
*927 FILLER_18_77
*928 FILLER_18_84
*929 FILLER_18_91
*930 FILLER_18_98
*931 FILLER_19_105
*932 FILLER_19_112
*933 FILLER_19_119
*934 FILLER_19_126
*935 FILLER_19_133
*936 FILLER_19_140
*937 FILLER_19_147
*938 FILLER_19_154
*939 FILLER_19_161
*940 FILLER_19_168
*941 FILLER_19_175
*942 FILLER_19_182
*943 FILLER_19_189
*944 FILLER_19_196
*945 FILLER_19_203
*946 FILLER_19_210
*947 FILLER_19_217
*948 FILLER_19_224
*949 FILLER_19_231
*950 FILLER_19_238
*951 FILLER_19_245
*952 FILLER_19_252
*953 FILLER_19_259
*954 FILLER_19_266
*955 FILLER_19_273
*956 FILLER_19_280
*957 FILLER_19_287
*958 FILLER_19_294
*959 FILLER_19_301
*960 FILLER_19_308
*961 FILLER_19_315
*962 FILLER_19_322
*963 FILLER_19_329
*964 FILLER_19_336
*965 FILLER_19_343
*966 FILLER_19_350
*967 FILLER_19_357
*968 FILLER_19_364
*969 FILLER_19_371
*970 FILLER_19_378
*971 FILLER_19_385
*972 FILLER_19_392
*973 FILLER_19_399
*974 FILLER_19_406
*975 FILLER_19_413
*976 FILLER_19_420
*977 FILLER_19_427
*978 FILLER_19_434
*979 FILLER_19_441
*980 FILLER_19_448
*981 FILLER_19_455
*982 FILLER_19_462
*983 FILLER_19_469
*984 FILLER_19_476
*985 FILLER_19_483
*986 FILLER_19_490
*987 FILLER_19_497
*988 FILLER_19_504
*989 FILLER_19_511
*990 FILLER_19_518
*991 FILLER_19_525
*992 FILLER_19_532
*993 FILLER_19_539
*994 FILLER_19_546
*995 FILLER_19_553
*996 FILLER_19_560
*997 FILLER_19_567
*998 FILLER_19_574
*999 FILLER_19_581
*1000 FILLER_19_588
*1001 FILLER_19_595
*1002 FILLER_19_602
*1003 FILLER_19_609
*1004 FILLER_19_616
*1005 FILLER_19_623
*1006 FILLER_19_630
*1007 FILLER_19_637
*1008 FILLER_19_644
*1009 FILLER_19_651
*1010 FILLER_19_658
*1011 FILLER_19_665
*1012 FILLER_19_672
*1013 FILLER_19_679
*1014 FILLER_19_686
*1015 FILLER_19_693
*1016 FILLER_19_700
*1017 FILLER_19_707
*1018 FILLER_19_714
*1019 FILLER_19_721
*1020 FILLER_19_728
*1021 FILLER_19_735
*1022 FILLER_19_742
*1023 FILLER_19_749
*1024 FILLER_19_753
*1025 FILLER_19_98
*1026 FILLER_1_1006
*1027 FILLER_1_1013
*1028 FILLER_1_1020
*1029 FILLER_1_1027
*1030 FILLER_1_103
*1031 FILLER_1_1034
*1032 FILLER_1_1041
*1033 FILLER_1_1048
*1034 FILLER_1_1055
*1035 FILLER_1_1062
*1036 FILLER_1_1069
*1037 FILLER_1_1076
*1038 FILLER_1_1083
*1039 FILLER_1_1090
*1040 FILLER_1_1097
*1041 FILLER_1_110
*1042 FILLER_1_1104
*1043 FILLER_1_1111
*1044 FILLER_1_1118
*1045 FILLER_1_1125
*1046 FILLER_1_1132
*1047 FILLER_1_1139
*1048 FILLER_1_1146
*1049 FILLER_1_1153
*1050 FILLER_1_1160
*1051 FILLER_1_1167
*1052 FILLER_1_117
*1053 FILLER_1_1174
*1054 FILLER_1_1181
*1055 FILLER_1_1188
*1056 FILLER_1_1195
*1057 FILLER_1_1202
*1058 FILLER_1_1209
*1059 FILLER_1_1216
*1060 FILLER_1_1223
*1061 FILLER_1_1230
*1062 FILLER_1_1237
*1063 FILLER_1_124
*1064 FILLER_1_1244
*1065 FILLER_1_1251
*1066 FILLER_1_1258
*1067 FILLER_1_1265
*1068 FILLER_1_1272
*1069 FILLER_1_1279
*1070 FILLER_1_1286
*1071 FILLER_1_1293
*1072 FILLER_1_131
*1073 FILLER_1_138
*1074 FILLER_1_145
*1075 FILLER_1_152
*1076 FILLER_1_159
*1077 FILLER_1_166
*1078 FILLER_1_173
*1079 FILLER_1_180
*1080 FILLER_1_187
*1081 FILLER_1_194
*1082 FILLER_1_201
*1083 FILLER_1_208
*1084 FILLER_1_215
*1085 FILLER_1_222
*1086 FILLER_1_229
*1087 FILLER_1_236
*1088 FILLER_1_243
*1089 FILLER_1_250
*1090 FILLER_1_257
*1091 FILLER_1_264
*1092 FILLER_1_271
*1093 FILLER_1_278
*1094 FILLER_1_285
*1095 FILLER_1_292
*1096 FILLER_1_299
*1097 FILLER_1_306
*1098 FILLER_1_313
*1099 FILLER_1_320
*1100 FILLER_1_327
*1101 FILLER_1_334
*1102 FILLER_1_341
*1103 FILLER_1_348
*1104 FILLER_1_355
*1105 FILLER_1_362
*1106 FILLER_1_369
*1107 FILLER_1_376
*1108 FILLER_1_383
*1109 FILLER_1_390
*1110 FILLER_1_397
*1111 FILLER_1_404
*1112 FILLER_1_411
*1113 FILLER_1_418
*1114 FILLER_1_425
*1115 FILLER_1_432
*1116 FILLER_1_439
*1117 FILLER_1_446
*1118 FILLER_1_453
*1119 FILLER_1_460
*1120 FILLER_1_467
*1121 FILLER_1_474
*1122 FILLER_1_481
*1123 FILLER_1_488
*1124 FILLER_1_495
*1125 FILLER_1_502
*1126 FILLER_1_509
*1127 FILLER_1_516
*1128 FILLER_1_523
*1129 FILLER_1_530
*1130 FILLER_1_537
*1131 FILLER_1_544
*1132 FILLER_1_551
*1133 FILLER_1_558
*1134 FILLER_1_565
*1135 FILLER_1_572
*1136 FILLER_1_579
*1137 FILLER_1_586
*1138 FILLER_1_593
*1139 FILLER_1_600
*1140 FILLER_1_607
*1141 FILLER_1_614
*1142 FILLER_1_621
*1143 FILLER_1_628
*1144 FILLER_1_635
*1145 FILLER_1_642
*1146 FILLER_1_649
*1147 FILLER_1_656
*1148 FILLER_1_663
*1149 FILLER_1_670
*1150 FILLER_1_677
*1151 FILLER_1_684
*1152 FILLER_1_691
*1153 FILLER_1_698
*1154 FILLER_1_705
*1155 FILLER_1_712
*1156 FILLER_1_719
*1157 FILLER_1_726
*1158 FILLER_1_733
*1159 FILLER_1_740
*1160 FILLER_1_747
*1161 FILLER_1_754
*1162 FILLER_1_761
*1163 FILLER_1_768
*1164 FILLER_1_775
*1165 FILLER_1_782
*1166 FILLER_1_789
*1167 FILLER_1_796
*1168 FILLER_1_803
*1169 FILLER_1_810
*1170 FILLER_1_817
*1171 FILLER_1_824
*1172 FILLER_1_831
*1173 FILLER_1_838
*1174 FILLER_1_845
*1175 FILLER_1_852
*1176 FILLER_1_859
*1177 FILLER_1_866
*1178 FILLER_1_873
*1179 FILLER_1_880
*1180 FILLER_1_887
*1181 FILLER_1_89
*1182 FILLER_1_894
*1183 FILLER_1_901
*1184 FILLER_1_908
*1185 FILLER_1_915
*1186 FILLER_1_922
*1187 FILLER_1_929
*1188 FILLER_1_936
*1189 FILLER_1_943
*1190 FILLER_1_950
*1191 FILLER_1_957
*1192 FILLER_1_96
*1193 FILLER_1_964
*1194 FILLER_1_971
*1195 FILLER_1_978
*1196 FILLER_1_985
*1197 FILLER_1_992
*1198 FILLER_1_999
*1199 FILLER_20_105
*1200 FILLER_20_112
*1201 FILLER_20_119
*1202 FILLER_20_126
*1203 FILLER_20_133
*1204 FILLER_20_140
*1205 FILLER_20_147
*1206 FILLER_20_154
*1207 FILLER_20_161
*1208 FILLER_20_168
*1209 FILLER_20_175
*1210 FILLER_20_182
*1211 FILLER_20_189
*1212 FILLER_20_196
*1213 FILLER_20_203
*1214 FILLER_20_210
*1215 FILLER_20_217
*1216 FILLER_20_224
*1217 FILLER_20_231
*1218 FILLER_20_238
*1219 FILLER_20_245
*1220 FILLER_20_252
*1221 FILLER_20_259
*1222 FILLER_20_266
*1223 FILLER_20_273
*1224 FILLER_20_280
*1225 FILLER_20_287
*1226 FILLER_20_294
*1227 FILLER_20_301
*1228 FILLER_20_308
*1229 FILLER_20_315
*1230 FILLER_20_322
*1231 FILLER_20_329
*1232 FILLER_20_336
*1233 FILLER_20_343
*1234 FILLER_20_350
*1235 FILLER_20_357
*1236 FILLER_20_364
*1237 FILLER_20_371
*1238 FILLER_20_378
*1239 FILLER_20_385
*1240 FILLER_20_392
*1241 FILLER_20_399
*1242 FILLER_20_406
*1243 FILLER_20_413
*1244 FILLER_20_420
*1245 FILLER_20_427
*1246 FILLER_20_434
*1247 FILLER_20_441
*1248 FILLER_20_448
*1249 FILLER_20_455
*1250 FILLER_20_462
*1251 FILLER_20_469
*1252 FILLER_20_476
*1253 FILLER_20_483
*1254 FILLER_20_490
*1255 FILLER_20_497
*1256 FILLER_20_504
*1257 FILLER_20_511
*1258 FILLER_20_518
*1259 FILLER_20_525
*1260 FILLER_20_532
*1261 FILLER_20_539
*1262 FILLER_20_546
*1263 FILLER_20_553
*1264 FILLER_20_560
*1265 FILLER_20_567
*1266 FILLER_20_574
*1267 FILLER_20_581
*1268 FILLER_20_588
*1269 FILLER_20_595
*1270 FILLER_20_602
*1271 FILLER_20_609
*1272 FILLER_20_616
*1273 FILLER_20_623
*1274 FILLER_20_630
*1275 FILLER_20_637
*1276 FILLER_20_644
*1277 FILLER_20_651
*1278 FILLER_20_658
*1279 FILLER_20_665
*1280 FILLER_20_672
*1281 FILLER_20_679
*1282 FILLER_20_686
*1283 FILLER_20_693
*1284 FILLER_20_700
*1285 FILLER_20_707
*1286 FILLER_20_714
*1287 FILLER_20_721
*1288 FILLER_20_728
*1289 FILLER_20_735
*1290 FILLER_20_742
*1291 FILLER_20_749
*1292 FILLER_20_753
*1293 FILLER_20_98
*1294 FILLER_21_105
*1295 FILLER_21_112
*1296 FILLER_21_119
*1297 FILLER_21_126
*1298 FILLER_21_133
*1299 FILLER_21_140
*1300 FILLER_21_147
*1301 FILLER_21_154
*1302 FILLER_21_161
*1303 FILLER_21_168
*1304 FILLER_21_175
*1305 FILLER_21_182
*1306 FILLER_21_189
*1307 FILLER_21_196
*1308 FILLER_21_203
*1309 FILLER_21_210
*1310 FILLER_21_217
*1311 FILLER_21_224
*1312 FILLER_21_231
*1313 FILLER_21_238
*1314 FILLER_21_245
*1315 FILLER_21_252
*1316 FILLER_21_259
*1317 FILLER_21_266
*1318 FILLER_21_273
*1319 FILLER_21_280
*1320 FILLER_21_287
*1321 FILLER_21_294
*1322 FILLER_21_301
*1323 FILLER_21_308
*1324 FILLER_21_315
*1325 FILLER_21_322
*1326 FILLER_21_329
*1327 FILLER_21_336
*1328 FILLER_21_343
*1329 FILLER_21_350
*1330 FILLER_21_357
*1331 FILLER_21_364
*1332 FILLER_21_371
*1333 FILLER_21_378
*1334 FILLER_21_385
*1335 FILLER_21_392
*1336 FILLER_21_399
*1337 FILLER_21_406
*1338 FILLER_21_413
*1339 FILLER_21_420
*1340 FILLER_21_427
*1341 FILLER_21_434
*1342 FILLER_21_441
*1343 FILLER_21_448
*1344 FILLER_21_455
*1345 FILLER_21_462
*1346 FILLER_21_469
*1347 FILLER_21_476
*1348 FILLER_21_483
*1349 FILLER_21_490
*1350 FILLER_21_497
*1351 FILLER_21_504
*1352 FILLER_21_511
*1353 FILLER_21_518
*1354 FILLER_21_525
*1355 FILLER_21_532
*1356 FILLER_21_539
*1357 FILLER_21_546
*1358 FILLER_21_553
*1359 FILLER_21_560
*1360 FILLER_21_567
*1361 FILLER_21_574
*1362 FILLER_21_581
*1363 FILLER_21_588
*1364 FILLER_21_595
*1365 FILLER_21_602
*1366 FILLER_21_609
*1367 FILLER_21_616
*1368 FILLER_21_623
*1369 FILLER_21_630
*1370 FILLER_21_637
*1371 FILLER_21_644
*1372 FILLER_21_651
*1373 FILLER_21_658
*1374 FILLER_21_665
*1375 FILLER_21_672
*1376 FILLER_21_679
*1377 FILLER_21_686
*1378 FILLER_21_693
*1379 FILLER_21_700
*1380 FILLER_21_707
*1381 FILLER_21_714
*1382 FILLER_21_721
*1383 FILLER_21_728
*1384 FILLER_21_735
*1385 FILLER_21_742
*1386 FILLER_21_749
*1387 FILLER_21_753
*1388 FILLER_21_98
*1389 FILLER_22_105
*1390 FILLER_22_112
*1391 FILLER_22_119
*1392 FILLER_22_126
*1393 FILLER_22_133
*1394 FILLER_22_140
*1395 FILLER_22_147
*1396 FILLER_22_154
*1397 FILLER_22_161
*1398 FILLER_22_168
*1399 FILLER_22_175
*1400 FILLER_22_182
*1401 FILLER_22_189
*1402 FILLER_22_196
*1403 FILLER_22_203
*1404 FILLER_22_210
*1405 FILLER_22_217
*1406 FILLER_22_224
*1407 FILLER_22_231
*1408 FILLER_22_238
*1409 FILLER_22_245
*1410 FILLER_22_252
*1411 FILLER_22_259
*1412 FILLER_22_266
*1413 FILLER_22_273
*1414 FILLER_22_280
*1415 FILLER_22_287
*1416 FILLER_22_294
*1417 FILLER_22_301
*1418 FILLER_22_308
*1419 FILLER_22_315
*1420 FILLER_22_322
*1421 FILLER_22_329
*1422 FILLER_22_336
*1423 FILLER_22_343
*1424 FILLER_22_350
*1425 FILLER_22_357
*1426 FILLER_22_364
*1427 FILLER_22_371
*1428 FILLER_22_378
*1429 FILLER_22_385
*1430 FILLER_22_392
*1431 FILLER_22_399
*1432 FILLER_22_406
*1433 FILLER_22_413
*1434 FILLER_22_420
*1435 FILLER_22_427
*1436 FILLER_22_434
*1437 FILLER_22_441
*1438 FILLER_22_448
*1439 FILLER_22_455
*1440 FILLER_22_462
*1441 FILLER_22_469
*1442 FILLER_22_476
*1443 FILLER_22_483
*1444 FILLER_22_490
*1445 FILLER_22_497
*1446 FILLER_22_504
*1447 FILLER_22_511
*1448 FILLER_22_518
*1449 FILLER_22_525
*1450 FILLER_22_532
*1451 FILLER_22_539
*1452 FILLER_22_546
*1453 FILLER_22_553
*1454 FILLER_22_560
*1455 FILLER_22_567
*1456 FILLER_22_574
*1457 FILLER_22_581
*1458 FILLER_22_588
*1459 FILLER_22_595
*1460 FILLER_22_602
*1461 FILLER_22_609
*1462 FILLER_22_616
*1463 FILLER_22_623
*1464 FILLER_22_630
*1465 FILLER_22_637
*1466 FILLER_22_644
*1467 FILLER_22_651
*1468 FILLER_22_658
*1469 FILLER_22_665
*1470 FILLER_22_672
*1471 FILLER_22_679
*1472 FILLER_22_686
*1473 FILLER_22_693
*1474 FILLER_22_700
*1475 FILLER_22_707
*1476 FILLER_22_714
*1477 FILLER_22_721
*1478 FILLER_22_728
*1479 FILLER_22_735
*1480 FILLER_22_742
*1481 FILLER_22_749
*1482 FILLER_22_753
*1483 FILLER_22_98
*1484 FILLER_23_105
*1485 FILLER_23_112
*1486 FILLER_23_119
*1487 FILLER_23_126
*1488 FILLER_23_133
*1489 FILLER_23_140
*1490 FILLER_23_147
*1491 FILLER_23_154
*1492 FILLER_23_161
*1493 FILLER_23_168
*1494 FILLER_23_175
*1495 FILLER_23_182
*1496 FILLER_23_189
*1497 FILLER_23_196
*1498 FILLER_23_203
*1499 FILLER_23_210
*1500 FILLER_23_217
*1501 FILLER_23_224
*1502 FILLER_23_231
*1503 FILLER_23_238
*1504 FILLER_23_245
*1505 FILLER_23_252
*1506 FILLER_23_259
*1507 FILLER_23_266
*1508 FILLER_23_273
*1509 FILLER_23_280
*1510 FILLER_23_287
*1511 FILLER_23_294
*1512 FILLER_23_301
*1513 FILLER_23_308
*1514 FILLER_23_315
*1515 FILLER_23_322
*1516 FILLER_23_329
*1517 FILLER_23_336
*1518 FILLER_23_343
*1519 FILLER_23_350
*1520 FILLER_23_357
*1521 FILLER_23_364
*1522 FILLER_23_371
*1523 FILLER_23_378
*1524 FILLER_23_385
*1525 FILLER_23_392
*1526 FILLER_23_399
*1527 FILLER_23_406
*1528 FILLER_23_413
*1529 FILLER_23_420
*1530 FILLER_23_427
*1531 FILLER_23_434
*1532 FILLER_23_441
*1533 FILLER_23_448
*1534 FILLER_23_455
*1535 FILLER_23_462
*1536 FILLER_23_469
*1537 FILLER_23_476
*1538 FILLER_23_483
*1539 FILLER_23_490
*1540 FILLER_23_497
*1541 FILLER_23_504
*1542 FILLER_23_511
*1543 FILLER_23_518
*1544 FILLER_23_525
*1545 FILLER_23_532
*1546 FILLER_23_539
*1547 FILLER_23_546
*1548 FILLER_23_553
*1549 FILLER_23_560
*1550 FILLER_23_567
*1551 FILLER_23_574
*1552 FILLER_23_581
*1553 FILLER_23_588
*1554 FILLER_23_595
*1555 FILLER_23_602
*1556 FILLER_23_609
*1557 FILLER_23_616
*1558 FILLER_23_623
*1559 FILLER_23_630
*1560 FILLER_23_637
*1561 FILLER_23_644
*1562 FILLER_23_651
*1563 FILLER_23_658
*1564 FILLER_23_665
*1565 FILLER_23_672
*1566 FILLER_23_679
*1567 FILLER_23_686
*1568 FILLER_23_693
*1569 FILLER_23_700
*1570 FILLER_23_707
*1571 FILLER_23_714
*1572 FILLER_23_721
*1573 FILLER_23_728
*1574 FILLER_23_735
*1575 FILLER_23_742
*1576 FILLER_23_749
*1577 FILLER_23_753
*1578 FILLER_23_98
*1579 FILLER_24_105
*1580 FILLER_24_112
*1581 FILLER_24_119
*1582 FILLER_24_126
*1583 FILLER_24_133
*1584 FILLER_24_140
*1585 FILLER_24_147
*1586 FILLER_24_154
*1587 FILLER_24_161
*1588 FILLER_24_168
*1589 FILLER_24_175
*1590 FILLER_24_182
*1591 FILLER_24_189
*1592 FILLER_24_196
*1593 FILLER_24_203
*1594 FILLER_24_210
*1595 FILLER_24_217
*1596 FILLER_24_224
*1597 FILLER_24_231
*1598 FILLER_24_238
*1599 FILLER_24_245
*1600 FILLER_24_252
*1601 FILLER_24_259
*1602 FILLER_24_266
*1603 FILLER_24_273
*1604 FILLER_24_280
*1605 FILLER_24_287
*1606 FILLER_24_294
*1607 FILLER_24_301
*1608 FILLER_24_308
*1609 FILLER_24_315
*1610 FILLER_24_322
*1611 FILLER_24_329
*1612 FILLER_24_336
*1613 FILLER_24_343
*1614 FILLER_24_350
*1615 FILLER_24_357
*1616 FILLER_24_364
*1617 FILLER_24_371
*1618 FILLER_24_378
*1619 FILLER_24_385
*1620 FILLER_24_392
*1621 FILLER_24_399
*1622 FILLER_24_406
*1623 FILLER_24_413
*1624 FILLER_24_420
*1625 FILLER_24_427
*1626 FILLER_24_434
*1627 FILLER_24_441
*1628 FILLER_24_448
*1629 FILLER_24_455
*1630 FILLER_24_462
*1631 FILLER_24_469
*1632 FILLER_24_476
*1633 FILLER_24_483
*1634 FILLER_24_490
*1635 FILLER_24_497
*1636 FILLER_24_504
*1637 FILLER_24_511
*1638 FILLER_24_518
*1639 FILLER_24_525
*1640 FILLER_24_532
*1641 FILLER_24_539
*1642 FILLER_24_546
*1643 FILLER_24_553
*1644 FILLER_24_560
*1645 FILLER_24_567
*1646 FILLER_24_574
*1647 FILLER_24_581
*1648 FILLER_24_588
*1649 FILLER_24_595
*1650 FILLER_24_602
*1651 FILLER_24_609
*1652 FILLER_24_616
*1653 FILLER_24_623
*1654 FILLER_24_630
*1655 FILLER_24_637
*1656 FILLER_24_644
*1657 FILLER_24_651
*1658 FILLER_24_658
*1659 FILLER_24_665
*1660 FILLER_24_672
*1661 FILLER_24_679
*1662 FILLER_24_686
*1663 FILLER_24_693
*1664 FILLER_24_700
*1665 FILLER_24_707
*1666 FILLER_24_714
*1667 FILLER_24_721
*1668 FILLER_24_728
*1669 FILLER_24_735
*1670 FILLER_24_742
*1671 FILLER_24_749
*1672 FILLER_24_753
*1673 FILLER_24_98
*1674 FILLER_25_105
*1675 FILLER_25_112
*1676 FILLER_25_119
*1677 FILLER_25_126
*1678 FILLER_25_133
*1679 FILLER_25_140
*1680 FILLER_25_147
*1681 FILLER_25_154
*1682 FILLER_25_161
*1683 FILLER_25_168
*1684 FILLER_25_175
*1685 FILLER_25_182
*1686 FILLER_25_189
*1687 FILLER_25_196
*1688 FILLER_25_203
*1689 FILLER_25_210
*1690 FILLER_25_217
*1691 FILLER_25_224
*1692 FILLER_25_231
*1693 FILLER_25_238
*1694 FILLER_25_245
*1695 FILLER_25_252
*1696 FILLER_25_259
*1697 FILLER_25_266
*1698 FILLER_25_273
*1699 FILLER_25_280
*1700 FILLER_25_287
*1701 FILLER_25_294
*1702 FILLER_25_301
*1703 FILLER_25_308
*1704 FILLER_25_315
*1705 FILLER_25_322
*1706 FILLER_25_329
*1707 FILLER_25_336
*1708 FILLER_25_343
*1709 FILLER_25_350
*1710 FILLER_25_357
*1711 FILLER_25_364
*1712 FILLER_25_371
*1713 FILLER_25_378
*1714 FILLER_25_385
*1715 FILLER_25_392
*1716 FILLER_25_399
*1717 FILLER_25_406
*1718 FILLER_25_413
*1719 FILLER_25_420
*1720 FILLER_25_427
*1721 FILLER_25_434
*1722 FILLER_25_441
*1723 FILLER_25_448
*1724 FILLER_25_455
*1725 FILLER_25_462
*1726 FILLER_25_469
*1727 FILLER_25_476
*1728 FILLER_25_483
*1729 FILLER_25_490
*1730 FILLER_25_497
*1731 FILLER_25_504
*1732 FILLER_25_511
*1733 FILLER_25_518
*1734 FILLER_25_525
*1735 FILLER_25_532
*1736 FILLER_25_539
*1737 FILLER_25_546
*1738 FILLER_25_553
*1739 FILLER_25_560
*1740 FILLER_25_567
*1741 FILLER_25_574
*1742 FILLER_25_581
*1743 FILLER_25_588
*1744 FILLER_25_595
*1745 FILLER_25_602
*1746 FILLER_25_609
*1747 FILLER_25_616
*1748 FILLER_25_623
*1749 FILLER_25_630
*1750 FILLER_25_637
*1751 FILLER_25_644
*1752 FILLER_25_651
*1753 FILLER_25_658
*1754 FILLER_25_665
*1755 FILLER_25_672
*1756 FILLER_25_679
*1757 FILLER_25_686
*1758 FILLER_25_693
*1759 FILLER_25_700
*1760 FILLER_25_707
*1761 FILLER_25_714
*1762 FILLER_25_721
*1763 FILLER_25_728
*1764 FILLER_25_735
*1765 FILLER_25_742
*1766 FILLER_25_749
*1767 FILLER_25_753
*1768 FILLER_25_98
*1769 FILLER_26_105
*1770 FILLER_26_112
*1771 FILLER_26_119
*1772 FILLER_26_126
*1773 FILLER_26_133
*1774 FILLER_26_140
*1775 FILLER_26_147
*1776 FILLER_26_154
*1777 FILLER_26_161
*1778 FILLER_26_168
*1779 FILLER_26_175
*1780 FILLER_26_182
*1781 FILLER_26_189
*1782 FILLER_26_196
*1783 FILLER_26_203
*1784 FILLER_26_210
*1785 FILLER_26_217
*1786 FILLER_26_224
*1787 FILLER_26_231
*1788 FILLER_26_238
*1789 FILLER_26_245
*1790 FILLER_26_252
*1791 FILLER_26_259
*1792 FILLER_26_266
*1793 FILLER_26_273
*1794 FILLER_26_280
*1795 FILLER_26_287
*1796 FILLER_26_294
*1797 FILLER_26_301
*1798 FILLER_26_308
*1799 FILLER_26_315
*1800 FILLER_26_322
*1801 FILLER_26_329
*1802 FILLER_26_336
*1803 FILLER_26_343
*1804 FILLER_26_350
*1805 FILLER_26_357
*1806 FILLER_26_364
*1807 FILLER_26_371
*1808 FILLER_26_378
*1809 FILLER_26_385
*1810 FILLER_26_392
*1811 FILLER_26_399
*1812 FILLER_26_406
*1813 FILLER_26_413
*1814 FILLER_26_420
*1815 FILLER_26_427
*1816 FILLER_26_434
*1817 FILLER_26_441
*1818 FILLER_26_448
*1819 FILLER_26_455
*1820 FILLER_26_462
*1821 FILLER_26_469
*1822 FILLER_26_476
*1823 FILLER_26_483
*1824 FILLER_26_490
*1825 FILLER_26_497
*1826 FILLER_26_504
*1827 FILLER_26_511
*1828 FILLER_26_518
*1829 FILLER_26_525
*1830 FILLER_26_532
*1831 FILLER_26_539
*1832 FILLER_26_546
*1833 FILLER_26_553
*1834 FILLER_26_560
*1835 FILLER_26_567
*1836 FILLER_26_574
*1837 FILLER_26_581
*1838 FILLER_26_588
*1839 FILLER_26_595
*1840 FILLER_26_602
*1841 FILLER_26_609
*1842 FILLER_26_616
*1843 FILLER_26_623
*1844 FILLER_26_630
*1845 FILLER_26_637
*1846 FILLER_26_644
*1847 FILLER_26_651
*1848 FILLER_26_658
*1849 FILLER_26_665
*1850 FILLER_26_672
*1851 FILLER_26_679
*1852 FILLER_26_686
*1853 FILLER_26_693
*1854 FILLER_26_700
*1855 FILLER_26_707
*1856 FILLER_26_714
*1857 FILLER_26_721
*1858 FILLER_26_728
*1859 FILLER_26_735
*1860 FILLER_26_742
*1861 FILLER_26_749
*1862 FILLER_26_753
*1863 FILLER_26_98
*1864 FILLER_27_105
*1865 FILLER_27_112
*1866 FILLER_27_119
*1867 FILLER_27_126
*1868 FILLER_27_133
*1869 FILLER_27_140
*1870 FILLER_27_147
*1871 FILLER_27_154
*1872 FILLER_27_161
*1873 FILLER_27_168
*1874 FILLER_27_175
*1875 FILLER_27_182
*1876 FILLER_27_189
*1877 FILLER_27_196
*1878 FILLER_27_203
*1879 FILLER_27_210
*1880 FILLER_27_217
*1881 FILLER_27_224
*1882 FILLER_27_231
*1883 FILLER_27_238
*1884 FILLER_27_245
*1885 FILLER_27_252
*1886 FILLER_27_259
*1887 FILLER_27_266
*1888 FILLER_27_273
*1889 FILLER_27_280
*1890 FILLER_27_287
*1891 FILLER_27_294
*1892 FILLER_27_301
*1893 FILLER_27_308
*1894 FILLER_27_315
*1895 FILLER_27_322
*1896 FILLER_27_329
*1897 FILLER_27_336
*1898 FILLER_27_343
*1899 FILLER_27_350
*1900 FILLER_27_357
*1901 FILLER_27_364
*1902 FILLER_27_371
*1903 FILLER_27_378
*1904 FILLER_27_385
*1905 FILLER_27_392
*1906 FILLER_27_399
*1907 FILLER_27_406
*1908 FILLER_27_413
*1909 FILLER_27_420
*1910 FILLER_27_427
*1911 FILLER_27_434
*1912 FILLER_27_441
*1913 FILLER_27_448
*1914 FILLER_27_455
*1915 FILLER_27_462
*1916 FILLER_27_469
*1917 FILLER_27_476
*1918 FILLER_27_483
*1919 FILLER_27_490
*1920 FILLER_27_497
*1921 FILLER_27_504
*1922 FILLER_27_511
*1923 FILLER_27_518
*1924 FILLER_27_525
*1925 FILLER_27_532
*1926 FILLER_27_539
*1927 FILLER_27_546
*1928 FILLER_27_553
*1929 FILLER_27_560
*1930 FILLER_27_567
*1931 FILLER_27_574
*1932 FILLER_27_581
*1933 FILLER_27_588
*1934 FILLER_27_595
*1935 FILLER_27_602
*1936 FILLER_27_609
*1937 FILLER_27_616
*1938 FILLER_27_623
*1939 FILLER_27_630
*1940 FILLER_27_637
*1941 FILLER_27_644
*1942 FILLER_27_651
*1943 FILLER_27_658
*1944 FILLER_27_665
*1945 FILLER_27_672
*1946 FILLER_27_679
*1947 FILLER_27_686
*1948 FILLER_27_693
*1949 FILLER_27_700
*1950 FILLER_27_707
*1951 FILLER_27_714
*1952 FILLER_27_721
*1953 FILLER_27_728
*1954 FILLER_27_735
*1955 FILLER_27_742
*1956 FILLER_27_749
*1957 FILLER_27_753
*1958 FILLER_27_98
*1959 FILLER_28_105
*1960 FILLER_28_112
*1961 FILLER_28_119
*1962 FILLER_28_126
*1963 FILLER_28_133
*1964 FILLER_28_140
*1965 FILLER_28_147
*1966 FILLER_28_154
*1967 FILLER_28_161
*1968 FILLER_28_168
*1969 FILLER_28_175
*1970 FILLER_28_182
*1971 FILLER_28_189
*1972 FILLER_28_196
*1973 FILLER_28_203
*1974 FILLER_28_210
*1975 FILLER_28_217
*1976 FILLER_28_224
*1977 FILLER_28_231
*1978 FILLER_28_238
*1979 FILLER_28_245
*1980 FILLER_28_252
*1981 FILLER_28_259
*1982 FILLER_28_266
*1983 FILLER_28_273
*1984 FILLER_28_280
*1985 FILLER_28_287
*1986 FILLER_28_294
*1987 FILLER_28_301
*1988 FILLER_28_308
*1989 FILLER_28_315
*1990 FILLER_28_322
*1991 FILLER_28_329
*1992 FILLER_28_336
*1993 FILLER_28_343
*1994 FILLER_28_350
*1995 FILLER_28_357
*1996 FILLER_28_364
*1997 FILLER_28_371
*1998 FILLER_28_378
*1999 FILLER_28_385
*2000 FILLER_28_392
*2001 FILLER_28_399
*2002 FILLER_28_406
*2003 FILLER_28_413
*2004 FILLER_28_420
*2005 FILLER_28_427
*2006 FILLER_28_434
*2007 FILLER_28_441
*2008 FILLER_28_448
*2009 FILLER_28_455
*2010 FILLER_28_462
*2011 FILLER_28_469
*2012 FILLER_28_476
*2013 FILLER_28_483
*2014 FILLER_28_490
*2015 FILLER_28_497
*2016 FILLER_28_504
*2017 FILLER_28_511
*2018 FILLER_28_518
*2019 FILLER_28_525
*2020 FILLER_28_532
*2021 FILLER_28_539
*2022 FILLER_28_546
*2023 FILLER_28_553
*2024 FILLER_28_560
*2025 FILLER_28_567
*2026 FILLER_28_574
*2027 FILLER_28_581
*2028 FILLER_28_588
*2029 FILLER_28_595
*2030 FILLER_28_602
*2031 FILLER_28_609
*2032 FILLER_28_616
*2033 FILLER_28_623
*2034 FILLER_28_630
*2035 FILLER_28_637
*2036 FILLER_28_644
*2037 FILLER_28_651
*2038 FILLER_28_658
*2039 FILLER_28_665
*2040 FILLER_28_672
*2041 FILLER_28_679
*2042 FILLER_28_686
*2043 FILLER_28_693
*2044 FILLER_28_700
*2045 FILLER_28_707
*2046 FILLER_28_714
*2047 FILLER_28_721
*2048 FILLER_28_728
*2049 FILLER_28_735
*2050 FILLER_28_742
*2051 FILLER_28_749
*2052 FILLER_28_753
*2053 FILLER_28_98
*2054 FILLER_29_105
*2055 FILLER_29_112
*2056 FILLER_29_119
*2057 FILLER_29_126
*2058 FILLER_29_133
*2059 FILLER_29_140
*2060 FILLER_29_147
*2061 FILLER_29_154
*2062 FILLER_29_161
*2063 FILLER_29_168
*2064 FILLER_29_175
*2065 FILLER_29_182
*2066 FILLER_29_189
*2067 FILLER_29_196
*2068 FILLER_29_203
*2069 FILLER_29_210
*2070 FILLER_29_217
*2071 FILLER_29_224
*2072 FILLER_29_231
*2073 FILLER_29_238
*2074 FILLER_29_245
*2075 FILLER_29_252
*2076 FILLER_29_259
*2077 FILLER_29_266
*2078 FILLER_29_273
*2079 FILLER_29_280
*2080 FILLER_29_287
*2081 FILLER_29_294
*2082 FILLER_29_301
*2083 FILLER_29_308
*2084 FILLER_29_315
*2085 FILLER_29_322
*2086 FILLER_29_329
*2087 FILLER_29_336
*2088 FILLER_29_343
*2089 FILLER_29_350
*2090 FILLER_29_357
*2091 FILLER_29_364
*2092 FILLER_29_371
*2093 FILLER_29_378
*2094 FILLER_29_385
*2095 FILLER_29_392
*2096 FILLER_29_399
*2097 FILLER_29_406
*2098 FILLER_29_413
*2099 FILLER_29_420
*2100 FILLER_29_427
*2101 FILLER_29_434
*2102 FILLER_29_441
*2103 FILLER_29_448
*2104 FILLER_29_455
*2105 FILLER_29_462
*2106 FILLER_29_469
*2107 FILLER_29_476
*2108 FILLER_29_483
*2109 FILLER_29_490
*2110 FILLER_29_497
*2111 FILLER_29_504
*2112 FILLER_29_511
*2113 FILLER_29_518
*2114 FILLER_29_525
*2115 FILLER_29_532
*2116 FILLER_29_539
*2117 FILLER_29_546
*2118 FILLER_29_553
*2119 FILLER_29_560
*2120 FILLER_29_567
*2121 FILLER_29_574
*2122 FILLER_29_581
*2123 FILLER_29_588
*2124 FILLER_29_595
*2125 FILLER_29_602
*2126 FILLER_29_609
*2127 FILLER_29_616
*2128 FILLER_29_623
*2129 FILLER_29_630
*2130 FILLER_29_637
*2131 FILLER_29_644
*2132 FILLER_29_651
*2133 FILLER_29_658
*2134 FILLER_29_665
*2135 FILLER_29_672
*2136 FILLER_29_679
*2137 FILLER_29_686
*2138 FILLER_29_693
*2139 FILLER_29_700
*2140 FILLER_29_707
*2141 FILLER_29_714
*2142 FILLER_29_721
*2143 FILLER_29_728
*2144 FILLER_29_735
*2145 FILLER_29_742
*2146 FILLER_29_749
*2147 FILLER_29_753
*2148 FILLER_29_98
*2149 FILLER_2_1006
*2150 FILLER_2_1013
*2151 FILLER_2_1020
*2152 FILLER_2_1027
*2153 FILLER_2_103
*2154 FILLER_2_1034
*2155 FILLER_2_1041
*2156 FILLER_2_1048
*2157 FILLER_2_1055
*2158 FILLER_2_1062
*2159 FILLER_2_1069
*2160 FILLER_2_1076
*2161 FILLER_2_1083
*2162 FILLER_2_1090
*2163 FILLER_2_1097
*2164 FILLER_2_110
*2165 FILLER_2_1104
*2166 FILLER_2_1111
*2167 FILLER_2_1118
*2168 FILLER_2_1125
*2169 FILLER_2_1132
*2170 FILLER_2_1139
*2171 FILLER_2_1146
*2172 FILLER_2_1153
*2173 FILLER_2_1160
*2174 FILLER_2_1167
*2175 FILLER_2_117
*2176 FILLER_2_1174
*2177 FILLER_2_1181
*2178 FILLER_2_1188
*2179 FILLER_2_1195
*2180 FILLER_2_1202
*2181 FILLER_2_1209
*2182 FILLER_2_1216
*2183 FILLER_2_1223
*2184 FILLER_2_1230
*2185 FILLER_2_1237
*2186 FILLER_2_124
*2187 FILLER_2_1244
*2188 FILLER_2_1251
*2189 FILLER_2_1258
*2190 FILLER_2_1265
*2191 FILLER_2_1272
*2192 FILLER_2_1279
*2193 FILLER_2_1286
*2194 FILLER_2_1293
*2195 FILLER_2_131
*2196 FILLER_2_138
*2197 FILLER_2_145
*2198 FILLER_2_152
*2199 FILLER_2_159
*2200 FILLER_2_166
*2201 FILLER_2_173
*2202 FILLER_2_180
*2203 FILLER_2_187
*2204 FILLER_2_194
*2205 FILLER_2_201
*2206 FILLER_2_208
*2207 FILLER_2_215
*2208 FILLER_2_222
*2209 FILLER_2_229
*2210 FILLER_2_236
*2211 FILLER_2_243
*2212 FILLER_2_250
*2213 FILLER_2_257
*2214 FILLER_2_264
*2215 FILLER_2_271
*2216 FILLER_2_278
*2217 FILLER_2_285
*2218 FILLER_2_292
*2219 FILLER_2_299
*2220 FILLER_2_306
*2221 FILLER_2_313
*2222 FILLER_2_320
*2223 FILLER_2_327
*2224 FILLER_2_334
*2225 FILLER_2_341
*2226 FILLER_2_348
*2227 FILLER_2_355
*2228 FILLER_2_362
*2229 FILLER_2_369
*2230 FILLER_2_376
*2231 FILLER_2_383
*2232 FILLER_2_390
*2233 FILLER_2_397
*2234 FILLER_2_404
*2235 FILLER_2_411
*2236 FILLER_2_418
*2237 FILLER_2_425
*2238 FILLER_2_432
*2239 FILLER_2_439
*2240 FILLER_2_446
*2241 FILLER_2_453
*2242 FILLER_2_460
*2243 FILLER_2_467
*2244 FILLER_2_474
*2245 FILLER_2_481
*2246 FILLER_2_488
*2247 FILLER_2_495
*2248 FILLER_2_502
*2249 FILLER_2_509
*2250 FILLER_2_516
*2251 FILLER_2_523
*2252 FILLER_2_530
*2253 FILLER_2_537
*2254 FILLER_2_544
*2255 FILLER_2_551
*2256 FILLER_2_558
*2257 FILLER_2_565
*2258 FILLER_2_572
*2259 FILLER_2_579
*2260 FILLER_2_586
*2261 FILLER_2_593
*2262 FILLER_2_600
*2263 FILLER_2_607
*2264 FILLER_2_614
*2265 FILLER_2_621
*2266 FILLER_2_628
*2267 FILLER_2_635
*2268 FILLER_2_642
*2269 FILLER_2_649
*2270 FILLER_2_656
*2271 FILLER_2_663
*2272 FILLER_2_670
*2273 FILLER_2_677
*2274 FILLER_2_684
*2275 FILLER_2_691
*2276 FILLER_2_698
*2277 FILLER_2_705
*2278 FILLER_2_712
*2279 FILLER_2_719
*2280 FILLER_2_726
*2281 FILLER_2_733
*2282 FILLER_2_740
*2283 FILLER_2_747
*2284 FILLER_2_754
*2285 FILLER_2_761
*2286 FILLER_2_768
*2287 FILLER_2_775
*2288 FILLER_2_782
*2289 FILLER_2_789
*2290 FILLER_2_796
*2291 FILLER_2_803
*2292 FILLER_2_810
*2293 FILLER_2_817
*2294 FILLER_2_824
*2295 FILLER_2_831
*2296 FILLER_2_838
*2297 FILLER_2_845
*2298 FILLER_2_852
*2299 FILLER_2_859
*2300 FILLER_2_866
*2301 FILLER_2_873
*2302 FILLER_2_880
*2303 FILLER_2_887
*2304 FILLER_2_89
*2305 FILLER_2_894
*2306 FILLER_2_901
*2307 FILLER_2_908
*2308 FILLER_2_915
*2309 FILLER_2_922
*2310 FILLER_2_929
*2311 FILLER_2_936
*2312 FILLER_2_943
*2313 FILLER_2_950
*2314 FILLER_2_957
*2315 FILLER_2_96
*2316 FILLER_2_964
*2317 FILLER_2_971
*2318 FILLER_2_978
*2319 FILLER_2_985
*2320 FILLER_2_992
*2321 FILLER_2_999
*2322 FILLER_30_105
*2323 FILLER_30_112
*2324 FILLER_30_119
*2325 FILLER_30_126
*2326 FILLER_30_133
*2327 FILLER_30_140
*2328 FILLER_30_147
*2329 FILLER_30_154
*2330 FILLER_30_161
*2331 FILLER_30_168
*2332 FILLER_30_175
*2333 FILLER_30_182
*2334 FILLER_30_189
*2335 FILLER_30_196
*2336 FILLER_30_203
*2337 FILLER_30_210
*2338 FILLER_30_217
*2339 FILLER_30_224
*2340 FILLER_30_231
*2341 FILLER_30_238
*2342 FILLER_30_245
*2343 FILLER_30_252
*2344 FILLER_30_259
*2345 FILLER_30_266
*2346 FILLER_30_273
*2347 FILLER_30_280
*2348 FILLER_30_287
*2349 FILLER_30_294
*2350 FILLER_30_301
*2351 FILLER_30_308
*2352 FILLER_30_315
*2353 FILLER_30_322
*2354 FILLER_30_329
*2355 FILLER_30_336
*2356 FILLER_30_343
*2357 FILLER_30_350
*2358 FILLER_30_357
*2359 FILLER_30_364
*2360 FILLER_30_371
*2361 FILLER_30_378
*2362 FILLER_30_385
*2363 FILLER_30_392
*2364 FILLER_30_399
*2365 FILLER_30_406
*2366 FILLER_30_413
*2367 FILLER_30_420
*2368 FILLER_30_427
*2369 FILLER_30_434
*2370 FILLER_30_441
*2371 FILLER_30_448
*2372 FILLER_30_455
*2373 FILLER_30_462
*2374 FILLER_30_469
*2375 FILLER_30_476
*2376 FILLER_30_483
*2377 FILLER_30_490
*2378 FILLER_30_497
*2379 FILLER_30_504
*2380 FILLER_30_511
*2381 FILLER_30_518
*2382 FILLER_30_525
*2383 FILLER_30_532
*2384 FILLER_30_539
*2385 FILLER_30_546
*2386 FILLER_30_553
*2387 FILLER_30_560
*2388 FILLER_30_567
*2389 FILLER_30_574
*2390 FILLER_30_581
*2391 FILLER_30_588
*2392 FILLER_30_595
*2393 FILLER_30_602
*2394 FILLER_30_609
*2395 FILLER_30_616
*2396 FILLER_30_623
*2397 FILLER_30_630
*2398 FILLER_30_637
*2399 FILLER_30_644
*2400 FILLER_30_651
*2401 FILLER_30_658
*2402 FILLER_30_665
*2403 FILLER_30_672
*2404 FILLER_30_679
*2405 FILLER_30_686
*2406 FILLER_30_693
*2407 FILLER_30_700
*2408 FILLER_30_707
*2409 FILLER_30_714
*2410 FILLER_30_721
*2411 FILLER_30_728
*2412 FILLER_30_735
*2413 FILLER_30_742
*2414 FILLER_30_749
*2415 FILLER_30_753
*2416 FILLER_30_98
*2417 FILLER_31_105
*2418 FILLER_31_112
*2419 FILLER_31_119
*2420 FILLER_31_126
*2421 FILLER_31_133
*2422 FILLER_31_140
*2423 FILLER_31_147
*2424 FILLER_31_154
*2425 FILLER_31_161
*2426 FILLER_31_168
*2427 FILLER_31_175
*2428 FILLER_31_182
*2429 FILLER_31_189
*2430 FILLER_31_196
*2431 FILLER_31_203
*2432 FILLER_31_210
*2433 FILLER_31_217
*2434 FILLER_31_224
*2435 FILLER_31_231
*2436 FILLER_31_238
*2437 FILLER_31_245
*2438 FILLER_31_252
*2439 FILLER_31_259
*2440 FILLER_31_266
*2441 FILLER_31_273
*2442 FILLER_31_280
*2443 FILLER_31_287
*2444 FILLER_31_294
*2445 FILLER_31_301
*2446 FILLER_31_308
*2447 FILLER_31_315
*2448 FILLER_31_322
*2449 FILLER_31_329
*2450 FILLER_31_336
*2451 FILLER_31_343
*2452 FILLER_31_350
*2453 FILLER_31_357
*2454 FILLER_31_364
*2455 FILLER_31_371
*2456 FILLER_31_378
*2457 FILLER_31_385
*2458 FILLER_31_392
*2459 FILLER_31_399
*2460 FILLER_31_406
*2461 FILLER_31_413
*2462 FILLER_31_420
*2463 FILLER_31_427
*2464 FILLER_31_434
*2465 FILLER_31_441
*2466 FILLER_31_448
*2467 FILLER_31_455
*2468 FILLER_31_462
*2469 FILLER_31_469
*2470 FILLER_31_476
*2471 FILLER_31_483
*2472 FILLER_31_490
*2473 FILLER_31_497
*2474 FILLER_31_504
*2475 FILLER_31_511
*2476 FILLER_31_518
*2477 FILLER_31_525
*2478 FILLER_31_532
*2479 FILLER_31_539
*2480 FILLER_31_546
*2481 FILLER_31_553
*2482 FILLER_31_560
*2483 FILLER_31_567
*2484 FILLER_31_574
*2485 FILLER_31_581
*2486 FILLER_31_588
*2487 FILLER_31_595
*2488 FILLER_31_602
*2489 FILLER_31_609
*2490 FILLER_31_616
*2491 FILLER_31_623
*2492 FILLER_31_630
*2493 FILLER_31_637
*2494 FILLER_31_644
*2495 FILLER_31_651
*2496 FILLER_31_658
*2497 FILLER_31_665
*2498 FILLER_31_672
*2499 FILLER_31_679
*2500 FILLER_31_686
*2501 FILLER_31_693
*2502 FILLER_31_700
*2503 FILLER_31_707
*2504 FILLER_31_714
*2505 FILLER_31_721
*2506 FILLER_31_728
*2507 FILLER_31_735
*2508 FILLER_31_742
*2509 FILLER_31_749
*2510 FILLER_31_753
*2511 FILLER_31_98
*2512 FILLER_32_372
*2513 FILLER_32_379
*2514 FILLER_32_386
*2515 FILLER_32_393
*2516 FILLER_32_400
*2517 FILLER_32_407
*2518 FILLER_32_414
*2519 FILLER_32_421
*2520 FILLER_32_428
*2521 FILLER_32_435
*2522 FILLER_32_442
*2523 FILLER_32_449
*2524 FILLER_32_456
*2525 FILLER_32_463
*2526 FILLER_32_470
*2527 FILLER_32_477
*2528 FILLER_32_484
*2529 FILLER_32_491
*2530 FILLER_32_498
*2531 FILLER_32_505
*2532 FILLER_32_512
*2533 FILLER_32_519
*2534 FILLER_32_526
*2535 FILLER_32_533
*2536 FILLER_32_540
*2537 FILLER_32_547
*2538 FILLER_32_554
*2539 FILLER_32_561
*2540 FILLER_32_568
*2541 FILLER_32_575
*2542 FILLER_32_582
*2543 FILLER_32_589
*2544 FILLER_32_596
*2545 FILLER_32_603
*2546 FILLER_32_610
*2547 FILLER_32_617
*2548 FILLER_32_624
*2549 FILLER_32_631
*2550 FILLER_32_638
*2551 FILLER_32_645
*2552 FILLER_32_652
*2553 FILLER_32_659
*2554 FILLER_32_666
*2555 FILLER_32_673
*2556 FILLER_32_680
*2557 FILLER_32_687
*2558 FILLER_32_694
*2559 FILLER_32_701
*2560 FILLER_32_708
*2561 FILLER_32_715
*2562 FILLER_32_722
*2563 FILLER_32_729
*2564 FILLER_32_736
*2565 FILLER_32_743
*2566 FILLER_32_750
*2567 FILLER_32_754
*2568 FILLER_33_372
*2569 FILLER_33_379
*2570 FILLER_33_386
*2571 FILLER_33_393
*2572 FILLER_33_400
*2573 FILLER_33_407
*2574 FILLER_33_414
*2575 FILLER_33_421
*2576 FILLER_33_428
*2577 FILLER_33_435
*2578 FILLER_33_442
*2579 FILLER_33_449
*2580 FILLER_33_456
*2581 FILLER_33_463
*2582 FILLER_33_470
*2583 FILLER_33_477
*2584 FILLER_33_484
*2585 FILLER_33_491
*2586 FILLER_33_498
*2587 FILLER_33_505
*2588 FILLER_33_512
*2589 FILLER_33_519
*2590 FILLER_33_526
*2591 FILLER_33_533
*2592 FILLER_33_540
*2593 FILLER_33_547
*2594 FILLER_33_554
*2595 FILLER_33_561
*2596 FILLER_33_568
*2597 FILLER_33_575
*2598 FILLER_33_582
*2599 FILLER_33_589
*2600 FILLER_33_596
*2601 FILLER_33_603
*2602 FILLER_33_610
*2603 FILLER_33_617
*2604 FILLER_33_624
*2605 FILLER_33_631
*2606 FILLER_33_638
*2607 FILLER_33_645
*2608 FILLER_33_652
*2609 FILLER_33_659
*2610 FILLER_33_666
*2611 FILLER_33_673
*2612 FILLER_33_680
*2613 FILLER_33_687
*2614 FILLER_33_694
*2615 FILLER_33_701
*2616 FILLER_33_708
*2617 FILLER_33_715
*2618 FILLER_33_722
*2619 FILLER_33_729
*2620 FILLER_33_736
*2621 FILLER_33_743
*2622 FILLER_33_750
*2623 FILLER_33_754
*2624 FILLER_34_372
*2625 FILLER_34_379
*2626 FILLER_34_386
*2627 FILLER_34_393
*2628 FILLER_34_400
*2629 FILLER_34_407
*2630 FILLER_34_414
*2631 FILLER_34_421
*2632 FILLER_34_428
*2633 FILLER_34_435
*2634 FILLER_34_442
*2635 FILLER_34_449
*2636 FILLER_34_456
*2637 FILLER_34_463
*2638 FILLER_34_470
*2639 FILLER_34_477
*2640 FILLER_34_484
*2641 FILLER_34_491
*2642 FILLER_34_498
*2643 FILLER_34_505
*2644 FILLER_34_512
*2645 FILLER_34_519
*2646 FILLER_34_526
*2647 FILLER_34_533
*2648 FILLER_34_540
*2649 FILLER_34_547
*2650 FILLER_34_554
*2651 FILLER_34_561
*2652 FILLER_34_568
*2653 FILLER_34_575
*2654 FILLER_34_582
*2655 FILLER_34_589
*2656 FILLER_34_596
*2657 FILLER_34_603
*2658 FILLER_34_610
*2659 FILLER_34_617
*2660 FILLER_34_624
*2661 FILLER_34_631
*2662 FILLER_34_638
*2663 FILLER_34_645
*2664 FILLER_34_652
*2665 FILLER_34_659
*2666 FILLER_34_666
*2667 FILLER_34_673
*2668 FILLER_34_680
*2669 FILLER_34_687
*2670 FILLER_34_694
*2671 FILLER_34_701
*2672 FILLER_34_708
*2673 FILLER_34_715
*2674 FILLER_34_722
*2675 FILLER_34_729
*2676 FILLER_34_736
*2677 FILLER_34_743
*2678 FILLER_34_750
*2679 FILLER_34_754
*2680 FILLER_36_1005
*2681 FILLER_36_1012
*2682 FILLER_36_1019
*2683 FILLER_36_1026
*2684 FILLER_36_1033
*2685 FILLER_36_1040
*2686 FILLER_36_1047
*2687 FILLER_36_1054
*2688 FILLER_36_1061
*2689 FILLER_36_1068
*2690 FILLER_36_1075
*2691 FILLER_36_1082
*2692 FILLER_36_1089
*2693 FILLER_36_1096
*2694 FILLER_36_1103
*2695 FILLER_36_1110
*2696 FILLER_36_1117
*2697 FILLER_36_1124
*2698 FILLER_36_1131
*2699 FILLER_36_1138
*2700 FILLER_36_1145
*2701 FILLER_36_1152
*2702 FILLER_36_1159
*2703 FILLER_36_1166
*2704 FILLER_36_1173
*2705 FILLER_36_1180
*2706 FILLER_36_1187
*2707 FILLER_36_1194
*2708 FILLER_36_1201
*2709 FILLER_36_1208
*2710 FILLER_36_1215
*2711 FILLER_36_1222
*2712 FILLER_36_1229
*2713 FILLER_36_1236
*2714 FILLER_36_1243
*2715 FILLER_36_1250
*2716 FILLER_36_1257
*2717 FILLER_36_1264
*2718 FILLER_36_1271
*2719 FILLER_36_1278
*2720 FILLER_36_1285
*2721 FILLER_36_1292
*2722 FILLER_36_1294
*2723 FILLER_36_781
*2724 FILLER_36_788
*2725 FILLER_36_795
*2726 FILLER_36_802
*2727 FILLER_36_809
*2728 FILLER_36_816
*2729 FILLER_36_823
*2730 FILLER_36_830
*2731 FILLER_36_837
*2732 FILLER_36_844
*2733 FILLER_36_851
*2734 FILLER_36_858
*2735 FILLER_36_865
*2736 FILLER_36_872
*2737 FILLER_36_879
*2738 FILLER_36_886
*2739 FILLER_36_893
*2740 FILLER_36_900
*2741 FILLER_36_907
*2742 FILLER_36_914
*2743 FILLER_36_921
*2744 FILLER_36_928
*2745 FILLER_36_935
*2746 FILLER_36_942
*2747 FILLER_36_949
*2748 FILLER_36_956
*2749 FILLER_36_963
*2750 FILLER_36_970
*2751 FILLER_36_977
*2752 FILLER_36_984
*2753 FILLER_36_991
*2754 FILLER_36_998
*2755 FILLER_37_1005
*2756 FILLER_37_1012
*2757 FILLER_37_1019
*2758 FILLER_37_1026
*2759 FILLER_37_1033
*2760 FILLER_37_1040
*2761 FILLER_37_1047
*2762 FILLER_37_1054
*2763 FILLER_37_1061
*2764 FILLER_37_1068
*2765 FILLER_37_1075
*2766 FILLER_37_1082
*2767 FILLER_37_1089
*2768 FILLER_37_1096
*2769 FILLER_37_1103
*2770 FILLER_37_1110
*2771 FILLER_37_1117
*2772 FILLER_37_1124
*2773 FILLER_37_1131
*2774 FILLER_37_1138
*2775 FILLER_37_1145
*2776 FILLER_37_1152
*2777 FILLER_37_1159
*2778 FILLER_37_1166
*2779 FILLER_37_1173
*2780 FILLER_37_1180
*2781 FILLER_37_1187
*2782 FILLER_37_1194
*2783 FILLER_37_1201
*2784 FILLER_37_1208
*2785 FILLER_37_1215
*2786 FILLER_37_1222
*2787 FILLER_37_1229
*2788 FILLER_37_1236
*2789 FILLER_37_1243
*2790 FILLER_37_1250
*2791 FILLER_37_1257
*2792 FILLER_37_1264
*2793 FILLER_37_1271
*2794 FILLER_37_1278
*2795 FILLER_37_1285
*2796 FILLER_37_1292
*2797 FILLER_37_1294
*2798 FILLER_37_781
*2799 FILLER_37_788
*2800 FILLER_37_795
*2801 FILLER_37_802
*2802 FILLER_37_809
*2803 FILLER_37_816
*2804 FILLER_37_823
*2805 FILLER_37_830
*2806 FILLER_37_837
*2807 FILLER_37_844
*2808 FILLER_37_851
*2809 FILLER_37_858
*2810 FILLER_37_865
*2811 FILLER_37_872
*2812 FILLER_37_879
*2813 FILLER_37_886
*2814 FILLER_37_893
*2815 FILLER_37_900
*2816 FILLER_37_907
*2817 FILLER_37_914
*2818 FILLER_37_921
*2819 FILLER_37_928
*2820 FILLER_37_935
*2821 FILLER_37_942
*2822 FILLER_37_949
*2823 FILLER_37_956
*2824 FILLER_37_963
*2825 FILLER_37_970
*2826 FILLER_37_977
*2827 FILLER_37_984
*2828 FILLER_37_991
*2829 FILLER_37_998
*2830 FILLER_38_1005
*2831 FILLER_38_1012
*2832 FILLER_38_1019
*2833 FILLER_38_1026
*2834 FILLER_38_1033
*2835 FILLER_38_1040
*2836 FILLER_38_1047
*2837 FILLER_38_1054
*2838 FILLER_38_1061
*2839 FILLER_38_1068
*2840 FILLER_38_1075
*2841 FILLER_38_1082
*2842 FILLER_38_1089
*2843 FILLER_38_1096
*2844 FILLER_38_1103
*2845 FILLER_38_1110
*2846 FILLER_38_1117
*2847 FILLER_38_1124
*2848 FILLER_38_1131
*2849 FILLER_38_1138
*2850 FILLER_38_1145
*2851 FILLER_38_1152
*2852 FILLER_38_1159
*2853 FILLER_38_1166
*2854 FILLER_38_1173
*2855 FILLER_38_1180
*2856 FILLER_38_1187
*2857 FILLER_38_1194
*2858 FILLER_38_1201
*2859 FILLER_38_1208
*2860 FILLER_38_1215
*2861 FILLER_38_1222
*2862 FILLER_38_1229
*2863 FILLER_38_1236
*2864 FILLER_38_1243
*2865 FILLER_38_1250
*2866 FILLER_38_1257
*2867 FILLER_38_1264
*2868 FILLER_38_1271
*2869 FILLER_38_1278
*2870 FILLER_38_1285
*2871 FILLER_38_1292
*2872 FILLER_38_1294
*2873 FILLER_38_781
*2874 FILLER_38_788
*2875 FILLER_38_795
*2876 FILLER_38_802
*2877 FILLER_38_809
*2878 FILLER_38_816
*2879 FILLER_38_823
*2880 FILLER_38_830
*2881 FILLER_38_837
*2882 FILLER_38_844
*2883 FILLER_38_851
*2884 FILLER_38_858
*2885 FILLER_38_865
*2886 FILLER_38_872
*2887 FILLER_38_879
*2888 FILLER_38_886
*2889 FILLER_38_893
*2890 FILLER_38_900
*2891 FILLER_38_907
*2892 FILLER_38_914
*2893 FILLER_38_921
*2894 FILLER_38_928
*2895 FILLER_38_935
*2896 FILLER_38_942
*2897 FILLER_38_949
*2898 FILLER_38_956
*2899 FILLER_38_963
*2900 FILLER_38_970
*2901 FILLER_38_977
*2902 FILLER_38_984
*2903 FILLER_38_991
*2904 FILLER_38_998
*2905 FILLER_39_1005
*2906 FILLER_39_1012
*2907 FILLER_39_1019
*2908 FILLER_39_1026
*2909 FILLER_39_1033
*2910 FILLER_39_1040
*2911 FILLER_39_1047
*2912 FILLER_39_1054
*2913 FILLER_39_1061
*2914 FILLER_39_1068
*2915 FILLER_39_1075
*2916 FILLER_39_1082
*2917 FILLER_39_1089
*2918 FILLER_39_1096
*2919 FILLER_39_1103
*2920 FILLER_39_1110
*2921 FILLER_39_1117
*2922 FILLER_39_1124
*2923 FILLER_39_1131
*2924 FILLER_39_1138
*2925 FILLER_39_1145
*2926 FILLER_39_1152
*2927 FILLER_39_1159
*2928 FILLER_39_1166
*2929 FILLER_39_1173
*2930 FILLER_39_1180
*2931 FILLER_39_1187
*2932 FILLER_39_1194
*2933 FILLER_39_1201
*2934 FILLER_39_1208
*2935 FILLER_39_1215
*2936 FILLER_39_1222
*2937 FILLER_39_1229
*2938 FILLER_39_1236
*2939 FILLER_39_1243
*2940 FILLER_39_1250
*2941 FILLER_39_1257
*2942 FILLER_39_1264
*2943 FILLER_39_1271
*2944 FILLER_39_1278
*2945 FILLER_39_1285
*2946 FILLER_39_1292
*2947 FILLER_39_1294
*2948 FILLER_39_781
*2949 FILLER_39_788
*2950 FILLER_39_795
*2951 FILLER_39_802
*2952 FILLER_39_809
*2953 FILLER_39_816
*2954 FILLER_39_823
*2955 FILLER_39_830
*2956 FILLER_39_837
*2957 FILLER_39_844
*2958 FILLER_39_851
*2959 FILLER_39_858
*2960 FILLER_39_865
*2961 FILLER_39_872
*2962 FILLER_39_879
*2963 FILLER_39_886
*2964 FILLER_39_893
*2965 FILLER_39_900
*2966 FILLER_39_907
*2967 FILLER_39_914
*2968 FILLER_39_921
*2969 FILLER_39_928
*2970 FILLER_39_935
*2971 FILLER_39_942
*2972 FILLER_39_949
*2973 FILLER_39_956
*2974 FILLER_39_963
*2975 FILLER_39_970
*2976 FILLER_39_977
*2977 FILLER_39_984
*2978 FILLER_39_991
*2979 FILLER_39_998
*2980 FILLER_3_1006
*2981 FILLER_3_1013
*2982 FILLER_3_1020
*2983 FILLER_3_1027
*2984 FILLER_3_103
*2985 FILLER_3_1034
*2986 FILLER_3_1041
*2987 FILLER_3_1048
*2988 FILLER_3_1055
*2989 FILLER_3_1062
*2990 FILLER_3_1069
*2991 FILLER_3_1076
*2992 FILLER_3_1083
*2993 FILLER_3_1090
*2994 FILLER_3_1097
*2995 FILLER_3_110
*2996 FILLER_3_1104
*2997 FILLER_3_1111
*2998 FILLER_3_1118
*2999 FILLER_3_1125
*3000 FILLER_3_1132
*3001 FILLER_3_1139
*3002 FILLER_3_1146
*3003 FILLER_3_1153
*3004 FILLER_3_1160
*3005 FILLER_3_1167
*3006 FILLER_3_117
*3007 FILLER_3_1174
*3008 FILLER_3_1181
*3009 FILLER_3_1188
*3010 FILLER_3_1195
*3011 FILLER_3_1202
*3012 FILLER_3_1209
*3013 FILLER_3_1216
*3014 FILLER_3_1223
*3015 FILLER_3_1230
*3016 FILLER_3_1237
*3017 FILLER_3_124
*3018 FILLER_3_1244
*3019 FILLER_3_1251
*3020 FILLER_3_1258
*3021 FILLER_3_1265
*3022 FILLER_3_1272
*3023 FILLER_3_1279
*3024 FILLER_3_1286
*3025 FILLER_3_1293
*3026 FILLER_3_131
*3027 FILLER_3_138
*3028 FILLER_3_145
*3029 FILLER_3_152
*3030 FILLER_3_159
*3031 FILLER_3_166
*3032 FILLER_3_173
*3033 FILLER_3_180
*3034 FILLER_3_187
*3035 FILLER_3_194
*3036 FILLER_3_201
*3037 FILLER_3_208
*3038 FILLER_3_215
*3039 FILLER_3_222
*3040 FILLER_3_229
*3041 FILLER_3_236
*3042 FILLER_3_243
*3043 FILLER_3_250
*3044 FILLER_3_257
*3045 FILLER_3_264
*3046 FILLER_3_271
*3047 FILLER_3_278
*3048 FILLER_3_285
*3049 FILLER_3_292
*3050 FILLER_3_299
*3051 FILLER_3_306
*3052 FILLER_3_313
*3053 FILLER_3_320
*3054 FILLER_3_327
*3055 FILLER_3_334
*3056 FILLER_3_341
*3057 FILLER_3_348
*3058 FILLER_3_355
*3059 FILLER_3_362
*3060 FILLER_3_369
*3061 FILLER_3_376
*3062 FILLER_3_383
*3063 FILLER_3_390
*3064 FILLER_3_397
*3065 FILLER_3_404
*3066 FILLER_3_411
*3067 FILLER_3_418
*3068 FILLER_3_425
*3069 FILLER_3_432
*3070 FILLER_3_439
*3071 FILLER_3_446
*3072 FILLER_3_453
*3073 FILLER_3_460
*3074 FILLER_3_467
*3075 FILLER_3_474
*3076 FILLER_3_481
*3077 FILLER_3_488
*3078 FILLER_3_495
*3079 FILLER_3_502
*3080 FILLER_3_509
*3081 FILLER_3_516
*3082 FILLER_3_523
*3083 FILLER_3_530
*3084 FILLER_3_537
*3085 FILLER_3_544
*3086 FILLER_3_551
*3087 FILLER_3_558
*3088 FILLER_3_565
*3089 FILLER_3_572
*3090 FILLER_3_579
*3091 FILLER_3_586
*3092 FILLER_3_593
*3093 FILLER_3_600
*3094 FILLER_3_607
*3095 FILLER_3_614
*3096 FILLER_3_621
*3097 FILLER_3_628
*3098 FILLER_3_635
*3099 FILLER_3_642
*3100 FILLER_3_649
*3101 FILLER_3_656
*3102 FILLER_3_663
*3103 FILLER_3_670
*3104 FILLER_3_677
*3105 FILLER_3_684
*3106 FILLER_3_691
*3107 FILLER_3_698
*3108 FILLER_3_705
*3109 FILLER_3_712
*3110 FILLER_3_719
*3111 FILLER_3_726
*3112 FILLER_3_733
*3113 FILLER_3_740
*3114 FILLER_3_747
*3115 FILLER_3_754
*3116 FILLER_3_761
*3117 FILLER_3_768
*3118 FILLER_3_775
*3119 FILLER_3_782
*3120 FILLER_3_789
*3121 FILLER_3_796
*3122 FILLER_3_803
*3123 FILLER_3_810
*3124 FILLER_3_817
*3125 FILLER_3_824
*3126 FILLER_3_831
*3127 FILLER_3_838
*3128 FILLER_3_845
*3129 FILLER_3_852
*3130 FILLER_3_859
*3131 FILLER_3_866
*3132 FILLER_3_873
*3133 FILLER_3_880
*3134 FILLER_3_887
*3135 FILLER_3_89
*3136 FILLER_3_894
*3137 FILLER_3_901
*3138 FILLER_3_908
*3139 FILLER_3_915
*3140 FILLER_3_922
*3141 FILLER_3_929
*3142 FILLER_3_936
*3143 FILLER_3_943
*3144 FILLER_3_950
*3145 FILLER_3_957
*3146 FILLER_3_96
*3147 FILLER_3_964
*3148 FILLER_3_971
*3149 FILLER_3_978
*3150 FILLER_3_985
*3151 FILLER_3_992
*3152 FILLER_3_999
*3153 FILLER_40_1005
*3154 FILLER_40_1012
*3155 FILLER_40_1019
*3156 FILLER_40_1026
*3157 FILLER_40_1033
*3158 FILLER_40_1040
*3159 FILLER_40_1047
*3160 FILLER_40_1054
*3161 FILLER_40_1061
*3162 FILLER_40_1068
*3163 FILLER_40_1075
*3164 FILLER_40_1082
*3165 FILLER_40_1089
*3166 FILLER_40_1096
*3167 FILLER_40_1103
*3168 FILLER_40_1110
*3169 FILLER_40_1117
*3170 FILLER_40_1124
*3171 FILLER_40_1131
*3172 FILLER_40_1138
*3173 FILLER_40_1145
*3174 FILLER_40_1152
*3175 FILLER_40_1159
*3176 FILLER_40_1166
*3177 FILLER_40_1173
*3178 FILLER_40_1180
*3179 FILLER_40_1187
*3180 FILLER_40_1194
*3181 FILLER_40_1201
*3182 FILLER_40_1208
*3183 FILLER_40_1215
*3184 FILLER_40_1222
*3185 FILLER_40_1229
*3186 FILLER_40_1236
*3187 FILLER_40_1243
*3188 FILLER_40_1250
*3189 FILLER_40_1257
*3190 FILLER_40_1264
*3191 FILLER_40_1271
*3192 FILLER_40_1278
*3193 FILLER_40_1285
*3194 FILLER_40_1292
*3195 FILLER_40_1294
*3196 FILLER_40_781
*3197 FILLER_40_788
*3198 FILLER_40_795
*3199 FILLER_40_802
*3200 FILLER_40_809
*3201 FILLER_40_816
*3202 FILLER_40_823
*3203 FILLER_40_830
*3204 FILLER_40_837
*3205 FILLER_40_844
*3206 FILLER_40_851
*3207 FILLER_40_858
*3208 FILLER_40_865
*3209 FILLER_40_872
*3210 FILLER_40_879
*3211 FILLER_40_886
*3212 FILLER_40_893
*3213 FILLER_40_900
*3214 FILLER_40_907
*3215 FILLER_40_914
*3216 FILLER_40_921
*3217 FILLER_40_928
*3218 FILLER_40_935
*3219 FILLER_40_942
*3220 FILLER_40_949
*3221 FILLER_40_956
*3222 FILLER_40_963
*3223 FILLER_40_970
*3224 FILLER_40_977
*3225 FILLER_40_984
*3226 FILLER_40_991
*3227 FILLER_40_998
*3228 FILLER_41_1005
*3229 FILLER_41_1012
*3230 FILLER_41_1019
*3231 FILLER_41_1026
*3232 FILLER_41_1033
*3233 FILLER_41_1040
*3234 FILLER_41_1047
*3235 FILLER_41_1054
*3236 FILLER_41_1061
*3237 FILLER_41_1068
*3238 FILLER_41_1075
*3239 FILLER_41_1082
*3240 FILLER_41_1089
*3241 FILLER_41_1096
*3242 FILLER_41_1103
*3243 FILLER_41_1110
*3244 FILLER_41_1117
*3245 FILLER_41_1124
*3246 FILLER_41_1131
*3247 FILLER_41_1138
*3248 FILLER_41_1145
*3249 FILLER_41_1152
*3250 FILLER_41_1159
*3251 FILLER_41_1166
*3252 FILLER_41_1173
*3253 FILLER_41_1180
*3254 FILLER_41_1187
*3255 FILLER_41_1194
*3256 FILLER_41_1201
*3257 FILLER_41_1208
*3258 FILLER_41_1215
*3259 FILLER_41_1222
*3260 FILLER_41_1229
*3261 FILLER_41_1236
*3262 FILLER_41_1243
*3263 FILLER_41_1250
*3264 FILLER_41_1257
*3265 FILLER_41_1264
*3266 FILLER_41_1271
*3267 FILLER_41_1278
*3268 FILLER_41_1285
*3269 FILLER_41_1292
*3270 FILLER_41_1294
*3271 FILLER_41_781
*3272 FILLER_41_788
*3273 FILLER_41_795
*3274 FILLER_41_802
*3275 FILLER_41_809
*3276 FILLER_41_816
*3277 FILLER_41_823
*3278 FILLER_41_830
*3279 FILLER_41_837
*3280 FILLER_41_844
*3281 FILLER_41_851
*3282 FILLER_41_858
*3283 FILLER_41_865
*3284 FILLER_41_872
*3285 FILLER_41_879
*3286 FILLER_41_886
*3287 FILLER_41_893
*3288 FILLER_41_900
*3289 FILLER_41_907
*3290 FILLER_41_914
*3291 FILLER_41_921
*3292 FILLER_41_928
*3293 FILLER_41_935
*3294 FILLER_41_942
*3295 FILLER_41_949
*3296 FILLER_41_956
*3297 FILLER_41_963
*3298 FILLER_41_970
*3299 FILLER_41_977
*3300 FILLER_41_984
*3301 FILLER_41_991
*3302 FILLER_41_998
*3303 FILLER_42_1005
*3304 FILLER_42_1012
*3305 FILLER_42_1019
*3306 FILLER_42_1026
*3307 FILLER_42_1033
*3308 FILLER_42_1040
*3309 FILLER_42_1047
*3310 FILLER_42_1054
*3311 FILLER_42_1061
*3312 FILLER_42_1068
*3313 FILLER_42_1075
*3314 FILLER_42_1082
*3315 FILLER_42_1089
*3316 FILLER_42_1096
*3317 FILLER_42_1103
*3318 FILLER_42_1110
*3319 FILLER_42_1117
*3320 FILLER_42_1124
*3321 FILLER_42_1131
*3322 FILLER_42_1138
*3323 FILLER_42_1145
*3324 FILLER_42_1152
*3325 FILLER_42_1159
*3326 FILLER_42_1166
*3327 FILLER_42_1173
*3328 FILLER_42_1180
*3329 FILLER_42_1187
*3330 FILLER_42_1194
*3331 FILLER_42_1201
*3332 FILLER_42_1208
*3333 FILLER_42_1215
*3334 FILLER_42_1222
*3335 FILLER_42_1229
*3336 FILLER_42_1236
*3337 FILLER_42_1243
*3338 FILLER_42_1250
*3339 FILLER_42_1257
*3340 FILLER_42_1264
*3341 FILLER_42_1271
*3342 FILLER_42_1278
*3343 FILLER_42_1285
*3344 FILLER_42_1292
*3345 FILLER_42_1294
*3346 FILLER_42_781
*3347 FILLER_42_788
*3348 FILLER_42_795
*3349 FILLER_42_802
*3350 FILLER_42_809
*3351 FILLER_42_816
*3352 FILLER_42_823
*3353 FILLER_42_830
*3354 FILLER_42_837
*3355 FILLER_42_844
*3356 FILLER_42_851
*3357 FILLER_42_858
*3358 FILLER_42_865
*3359 FILLER_42_872
*3360 FILLER_42_879
*3361 FILLER_42_886
*3362 FILLER_42_893
*3363 FILLER_42_900
*3364 FILLER_42_907
*3365 FILLER_42_914
*3366 FILLER_42_921
*3367 FILLER_42_928
*3368 FILLER_42_935
*3369 FILLER_42_942
*3370 FILLER_42_949
*3371 FILLER_42_956
*3372 FILLER_42_963
*3373 FILLER_42_970
*3374 FILLER_42_977
*3375 FILLER_42_984
*3376 FILLER_42_991
*3377 FILLER_42_998
*3378 FILLER_43_1005
*3379 FILLER_43_1012
*3380 FILLER_43_1019
*3381 FILLER_43_1026
*3382 FILLER_43_1033
*3383 FILLER_43_1040
*3384 FILLER_43_1047
*3385 FILLER_43_1054
*3386 FILLER_43_1061
*3387 FILLER_43_1068
*3388 FILLER_43_1075
*3389 FILLER_43_1082
*3390 FILLER_43_1089
*3391 FILLER_43_1096
*3392 FILLER_43_1103
*3393 FILLER_43_1110
*3394 FILLER_43_1117
*3395 FILLER_43_1124
*3396 FILLER_43_1131
*3397 FILLER_43_1138
*3398 FILLER_43_1145
*3399 FILLER_43_1152
*3400 FILLER_43_1159
*3401 FILLER_43_1166
*3402 FILLER_43_1173
*3403 FILLER_43_1180
*3404 FILLER_43_1187
*3405 FILLER_43_1194
*3406 FILLER_43_1201
*3407 FILLER_43_1208
*3408 FILLER_43_1215
*3409 FILLER_43_1222
*3410 FILLER_43_1229
*3411 FILLER_43_1236
*3412 FILLER_43_1243
*3413 FILLER_43_1250
*3414 FILLER_43_1257
*3415 FILLER_43_1264
*3416 FILLER_43_1271
*3417 FILLER_43_1278
*3418 FILLER_43_1285
*3419 FILLER_43_1292
*3420 FILLER_43_1294
*3421 FILLER_43_781
*3422 FILLER_43_788
*3423 FILLER_43_795
*3424 FILLER_43_802
*3425 FILLER_43_809
*3426 FILLER_43_816
*3427 FILLER_43_823
*3428 FILLER_43_830
*3429 FILLER_43_837
*3430 FILLER_43_844
*3431 FILLER_43_851
*3432 FILLER_43_858
*3433 FILLER_43_865
*3434 FILLER_43_872
*3435 FILLER_43_879
*3436 FILLER_43_886
*3437 FILLER_43_893
*3438 FILLER_43_900
*3439 FILLER_43_907
*3440 FILLER_43_914
*3441 FILLER_43_921
*3442 FILLER_43_928
*3443 FILLER_43_935
*3444 FILLER_43_942
*3445 FILLER_43_949
*3446 FILLER_43_956
*3447 FILLER_43_963
*3448 FILLER_43_970
*3449 FILLER_43_977
*3450 FILLER_43_984
*3451 FILLER_43_991
*3452 FILLER_43_998
*3453 FILLER_44_1005
*3454 FILLER_44_1012
*3455 FILLER_44_1019
*3456 FILLER_44_1026
*3457 FILLER_44_1033
*3458 FILLER_44_1040
*3459 FILLER_44_1047
*3460 FILLER_44_1054
*3461 FILLER_44_1061
*3462 FILLER_44_1068
*3463 FILLER_44_1075
*3464 FILLER_44_1082
*3465 FILLER_44_1089
*3466 FILLER_44_1096
*3467 FILLER_44_1103
*3468 FILLER_44_1110
*3469 FILLER_44_1117
*3470 FILLER_44_1124
*3471 FILLER_44_1131
*3472 FILLER_44_1138
*3473 FILLER_44_1145
*3474 FILLER_44_1152
*3475 FILLER_44_1159
*3476 FILLER_44_1166
*3477 FILLER_44_1173
*3478 FILLER_44_1180
*3479 FILLER_44_1187
*3480 FILLER_44_1194
*3481 FILLER_44_1201
*3482 FILLER_44_1208
*3483 FILLER_44_1215
*3484 FILLER_44_1222
*3485 FILLER_44_1229
*3486 FILLER_44_1236
*3487 FILLER_44_1243
*3488 FILLER_44_1250
*3489 FILLER_44_1257
*3490 FILLER_44_1264
*3491 FILLER_44_1271
*3492 FILLER_44_1278
*3493 FILLER_44_1285
*3494 FILLER_44_1292
*3495 FILLER_44_1294
*3496 FILLER_44_781
*3497 FILLER_44_788
*3498 FILLER_44_795
*3499 FILLER_44_802
*3500 FILLER_44_809
*3501 FILLER_44_816
*3502 FILLER_44_823
*3503 FILLER_44_830
*3504 FILLER_44_837
*3505 FILLER_44_844
*3506 FILLER_44_851
*3507 FILLER_44_858
*3508 FILLER_44_865
*3509 FILLER_44_872
*3510 FILLER_44_879
*3511 FILLER_44_886
*3512 FILLER_44_893
*3513 FILLER_44_900
*3514 FILLER_44_907
*3515 FILLER_44_914
*3516 FILLER_44_921
*3517 FILLER_44_928
*3518 FILLER_44_935
*3519 FILLER_44_942
*3520 FILLER_44_949
*3521 FILLER_44_956
*3522 FILLER_44_963
*3523 FILLER_44_970
*3524 FILLER_44_977
*3525 FILLER_44_984
*3526 FILLER_44_991
*3527 FILLER_44_998
*3528 FILLER_45_1005
*3529 FILLER_45_1012
*3530 FILLER_45_1019
*3531 FILLER_45_1026
*3532 FILLER_45_1033
*3533 FILLER_45_1040
*3534 FILLER_45_1047
*3535 FILLER_45_1054
*3536 FILLER_45_1061
*3537 FILLER_45_1068
*3538 FILLER_45_1075
*3539 FILLER_45_1082
*3540 FILLER_45_1089
*3541 FILLER_45_1096
*3542 FILLER_45_1103
*3543 FILLER_45_1110
*3544 FILLER_45_1117
*3545 FILLER_45_1124
*3546 FILLER_45_1131
*3547 FILLER_45_1138
*3548 FILLER_45_1145
*3549 FILLER_45_1152
*3550 FILLER_45_1159
*3551 FILLER_45_1166
*3552 FILLER_45_1173
*3553 FILLER_45_1180
*3554 FILLER_45_1187
*3555 FILLER_45_1194
*3556 FILLER_45_1201
*3557 FILLER_45_1208
*3558 FILLER_45_1215
*3559 FILLER_45_1222
*3560 FILLER_45_1229
*3561 FILLER_45_1236
*3562 FILLER_45_1243
*3563 FILLER_45_1250
*3564 FILLER_45_1257
*3565 FILLER_45_1264
*3566 FILLER_45_1271
*3567 FILLER_45_1278
*3568 FILLER_45_1285
*3569 FILLER_45_1292
*3570 FILLER_45_1294
*3571 FILLER_45_781
*3572 FILLER_45_788
*3573 FILLER_45_795
*3574 FILLER_45_802
*3575 FILLER_45_809
*3576 FILLER_45_816
*3577 FILLER_45_823
*3578 FILLER_45_830
*3579 FILLER_45_837
*3580 FILLER_45_844
*3581 FILLER_45_851
*3582 FILLER_45_858
*3583 FILLER_45_865
*3584 FILLER_45_872
*3585 FILLER_45_879
*3586 FILLER_45_886
*3587 FILLER_45_893
*3588 FILLER_45_900
*3589 FILLER_45_907
*3590 FILLER_45_914
*3591 FILLER_45_921
*3592 FILLER_45_928
*3593 FILLER_45_935
*3594 FILLER_45_942
*3595 FILLER_45_949
*3596 FILLER_45_956
*3597 FILLER_45_963
*3598 FILLER_45_970
*3599 FILLER_45_977
*3600 FILLER_45_984
*3601 FILLER_45_991
*3602 FILLER_45_998
*3603 FILLER_46_1005
*3604 FILLER_46_1012
*3605 FILLER_46_1019
*3606 FILLER_46_1026
*3607 FILLER_46_1033
*3608 FILLER_46_1040
*3609 FILLER_46_1047
*3610 FILLER_46_1054
*3611 FILLER_46_1061
*3612 FILLER_46_1068
*3613 FILLER_46_1075
*3614 FILLER_46_1082
*3615 FILLER_46_1089
*3616 FILLER_46_1096
*3617 FILLER_46_1103
*3618 FILLER_46_1110
*3619 FILLER_46_1117
*3620 FILLER_46_1124
*3621 FILLER_46_1131
*3622 FILLER_46_1138
*3623 FILLER_46_1145
*3624 FILLER_46_1152
*3625 FILLER_46_1159
*3626 FILLER_46_1166
*3627 FILLER_46_1173
*3628 FILLER_46_1180
*3629 FILLER_46_1187
*3630 FILLER_46_1194
*3631 FILLER_46_1201
*3632 FILLER_46_1208
*3633 FILLER_46_1215
*3634 FILLER_46_1222
*3635 FILLER_46_1229
*3636 FILLER_46_1236
*3637 FILLER_46_1243
*3638 FILLER_46_1250
*3639 FILLER_46_1257
*3640 FILLER_46_1264
*3641 FILLER_46_1271
*3642 FILLER_46_1278
*3643 FILLER_46_1285
*3644 FILLER_46_1292
*3645 FILLER_46_1294
*3646 FILLER_46_781
*3647 FILLER_46_788
*3648 FILLER_46_795
*3649 FILLER_46_802
*3650 FILLER_46_809
*3651 FILLER_46_816
*3652 FILLER_46_823
*3653 FILLER_46_830
*3654 FILLER_46_837
*3655 FILLER_46_844
*3656 FILLER_46_851
*3657 FILLER_46_858
*3658 FILLER_46_865
*3659 FILLER_46_872
*3660 FILLER_46_879
*3661 FILLER_46_886
*3662 FILLER_46_893
*3663 FILLER_46_900
*3664 FILLER_46_907
*3665 FILLER_46_914
*3666 FILLER_46_921
*3667 FILLER_46_928
*3668 FILLER_46_935
*3669 FILLER_46_942
*3670 FILLER_46_949
*3671 FILLER_46_956
*3672 FILLER_46_963
*3673 FILLER_46_970
*3674 FILLER_46_977
*3675 FILLER_46_984
*3676 FILLER_46_991
*3677 FILLER_46_998
*3678 FILLER_47_1005
*3679 FILLER_47_1012
*3680 FILLER_47_1019
*3681 FILLER_47_1026
*3682 FILLER_47_1033
*3683 FILLER_47_1040
*3684 FILLER_47_1047
*3685 FILLER_47_1054
*3686 FILLER_47_1061
*3687 FILLER_47_1068
*3688 FILLER_47_1075
*3689 FILLER_47_1082
*3690 FILLER_47_1089
*3691 FILLER_47_1096
*3692 FILLER_47_1103
*3693 FILLER_47_1110
*3694 FILLER_47_1117
*3695 FILLER_47_1124
*3696 FILLER_47_1131
*3697 FILLER_47_1138
*3698 FILLER_47_1145
*3699 FILLER_47_1152
*3700 FILLER_47_1159
*3701 FILLER_47_1166
*3702 FILLER_47_1173
*3703 FILLER_47_1180
*3704 FILLER_47_1187
*3705 FILLER_47_1194
*3706 FILLER_47_1201
*3707 FILLER_47_1208
*3708 FILLER_47_1215
*3709 FILLER_47_1222
*3710 FILLER_47_1229
*3711 FILLER_47_1236
*3712 FILLER_47_1243
*3713 FILLER_47_1250
*3714 FILLER_47_1257
*3715 FILLER_47_1264
*3716 FILLER_47_1271
*3717 FILLER_47_1278
*3718 FILLER_47_1285
*3719 FILLER_47_1292
*3720 FILLER_47_1294
*3721 FILLER_47_781
*3722 FILLER_47_788
*3723 FILLER_47_795
*3724 FILLER_47_802
*3725 FILLER_47_809
*3726 FILLER_47_816
*3727 FILLER_47_823
*3728 FILLER_47_830
*3729 FILLER_47_837
*3730 FILLER_47_844
*3731 FILLER_47_851
*3732 FILLER_47_858
*3733 FILLER_47_865
*3734 FILLER_47_872
*3735 FILLER_47_879
*3736 FILLER_47_886
*3737 FILLER_47_893
*3738 FILLER_47_900
*3739 FILLER_47_907
*3740 FILLER_47_914
*3741 FILLER_47_921
*3742 FILLER_47_928
*3743 FILLER_47_935
*3744 FILLER_47_942
*3745 FILLER_47_949
*3746 FILLER_47_956
*3747 FILLER_47_963
*3748 FILLER_47_970
*3749 FILLER_47_977
*3750 FILLER_47_984
*3751 FILLER_47_991
*3752 FILLER_47_998
*3753 FILLER_48_1005
*3754 FILLER_48_1012
*3755 FILLER_48_1019
*3756 FILLER_48_1026
*3757 FILLER_48_1033
*3758 FILLER_48_1040
*3759 FILLER_48_1047
*3760 FILLER_48_1054
*3761 FILLER_48_1061
*3762 FILLER_48_1068
*3763 FILLER_48_1075
*3764 FILLER_48_1082
*3765 FILLER_48_1089
*3766 FILLER_48_1096
*3767 FILLER_48_1103
*3768 FILLER_48_1110
*3769 FILLER_48_1117
*3770 FILLER_48_1124
*3771 FILLER_48_1131
*3772 FILLER_48_1138
*3773 FILLER_48_1145
*3774 FILLER_48_1152
*3775 FILLER_48_1159
*3776 FILLER_48_1166
*3777 FILLER_48_1173
*3778 FILLER_48_1180
*3779 FILLER_48_1187
*3780 FILLER_48_1194
*3781 FILLER_48_1201
*3782 FILLER_48_1208
*3783 FILLER_48_1215
*3784 FILLER_48_1222
*3785 FILLER_48_1229
*3786 FILLER_48_1236
*3787 FILLER_48_1243
*3788 FILLER_48_1250
*3789 FILLER_48_1257
*3790 FILLER_48_1264
*3791 FILLER_48_1271
*3792 FILLER_48_1278
*3793 FILLER_48_1285
*3794 FILLER_48_1292
*3795 FILLER_48_1294
*3796 FILLER_48_781
*3797 FILLER_48_788
*3798 FILLER_48_795
*3799 FILLER_48_802
*3800 FILLER_48_809
*3801 FILLER_48_816
*3802 FILLER_48_823
*3803 FILLER_48_830
*3804 FILLER_48_837
*3805 FILLER_48_844
*3806 FILLER_48_851
*3807 FILLER_48_858
*3808 FILLER_48_865
*3809 FILLER_48_872
*3810 FILLER_48_879
*3811 FILLER_48_886
*3812 FILLER_48_893
*3813 FILLER_48_900
*3814 FILLER_48_907
*3815 FILLER_48_914
*3816 FILLER_48_921
*3817 FILLER_48_928
*3818 FILLER_48_935
*3819 FILLER_48_942
*3820 FILLER_48_949
*3821 FILLER_48_956
*3822 FILLER_48_963
*3823 FILLER_48_970
*3824 FILLER_48_977
*3825 FILLER_48_984
*3826 FILLER_48_991
*3827 FILLER_48_998
*3828 FILLER_49_1005
*3829 FILLER_49_1012
*3830 FILLER_49_1019
*3831 FILLER_49_1026
*3832 FILLER_49_1033
*3833 FILLER_49_1040
*3834 FILLER_49_1047
*3835 FILLER_49_1054
*3836 FILLER_49_1061
*3837 FILLER_49_1068
*3838 FILLER_49_1075
*3839 FILLER_49_1082
*3840 FILLER_49_1089
*3841 FILLER_49_1096
*3842 FILLER_49_1103
*3843 FILLER_49_1110
*3844 FILLER_49_1117
*3845 FILLER_49_1124
*3846 FILLER_49_1131
*3847 FILLER_49_1138
*3848 FILLER_49_1145
*3849 FILLER_49_1152
*3850 FILLER_49_1159
*3851 FILLER_49_1166
*3852 FILLER_49_1173
*3853 FILLER_49_1180
*3854 FILLER_49_1187
*3855 FILLER_49_1194
*3856 FILLER_49_1201
*3857 FILLER_49_1208
*3858 FILLER_49_1215
*3859 FILLER_49_1222
*3860 FILLER_49_1229
*3861 FILLER_49_1236
*3862 FILLER_49_1243
*3863 FILLER_49_1250
*3864 FILLER_49_1257
*3865 FILLER_49_1264
*3866 FILLER_49_1271
*3867 FILLER_49_1278
*3868 FILLER_49_1285
*3869 FILLER_49_1292
*3870 FILLER_49_1294
*3871 FILLER_49_781
*3872 FILLER_49_788
*3873 FILLER_49_795
*3874 FILLER_49_802
*3875 FILLER_49_809
*3876 FILLER_49_816
*3877 FILLER_49_823
*3878 FILLER_49_830
*3879 FILLER_49_837
*3880 FILLER_49_844
*3881 FILLER_49_851
*3882 FILLER_49_858
*3883 FILLER_49_865
*3884 FILLER_49_872
*3885 FILLER_49_879
*3886 FILLER_49_886
*3887 FILLER_49_893
*3888 FILLER_49_900
*3889 FILLER_49_907
*3890 FILLER_49_914
*3891 FILLER_49_921
*3892 FILLER_49_928
*3893 FILLER_49_935
*3894 FILLER_49_942
*3895 FILLER_49_949
*3896 FILLER_49_956
*3897 FILLER_49_963
*3898 FILLER_49_970
*3899 FILLER_49_977
*3900 FILLER_49_984
*3901 FILLER_49_991
*3902 FILLER_49_998
*3903 FILLER_4_1006
*3904 FILLER_4_1013
*3905 FILLER_4_1020
*3906 FILLER_4_1027
*3907 FILLER_4_103
*3908 FILLER_4_1034
*3909 FILLER_4_1041
*3910 FILLER_4_1048
*3911 FILLER_4_1055
*3912 FILLER_4_1062
*3913 FILLER_4_1069
*3914 FILLER_4_1076
*3915 FILLER_4_1083
*3916 FILLER_4_1090
*3917 FILLER_4_1097
*3918 FILLER_4_110
*3919 FILLER_4_1104
*3920 FILLER_4_1111
*3921 FILLER_4_1118
*3922 FILLER_4_1125
*3923 FILLER_4_1132
*3924 FILLER_4_1139
*3925 FILLER_4_1146
*3926 FILLER_4_1153
*3927 FILLER_4_1160
*3928 FILLER_4_1167
*3929 FILLER_4_117
*3930 FILLER_4_1174
*3931 FILLER_4_1181
*3932 FILLER_4_1188
*3933 FILLER_4_1195
*3934 FILLER_4_1202
*3935 FILLER_4_1209
*3936 FILLER_4_1216
*3937 FILLER_4_1223
*3938 FILLER_4_1230
*3939 FILLER_4_1237
*3940 FILLER_4_124
*3941 FILLER_4_1244
*3942 FILLER_4_1251
*3943 FILLER_4_1258
*3944 FILLER_4_1265
*3945 FILLER_4_1272
*3946 FILLER_4_1279
*3947 FILLER_4_1286
*3948 FILLER_4_1293
*3949 FILLER_4_131
*3950 FILLER_4_138
*3951 FILLER_4_145
*3952 FILLER_4_152
*3953 FILLER_4_159
*3954 FILLER_4_166
*3955 FILLER_4_173
*3956 FILLER_4_180
*3957 FILLER_4_187
*3958 FILLER_4_194
*3959 FILLER_4_201
*3960 FILLER_4_208
*3961 FILLER_4_215
*3962 FILLER_4_222
*3963 FILLER_4_229
*3964 FILLER_4_236
*3965 FILLER_4_243
*3966 FILLER_4_250
*3967 FILLER_4_257
*3968 FILLER_4_264
*3969 FILLER_4_271
*3970 FILLER_4_278
*3971 FILLER_4_285
*3972 FILLER_4_292
*3973 FILLER_4_299
*3974 FILLER_4_306
*3975 FILLER_4_313
*3976 FILLER_4_320
*3977 FILLER_4_327
*3978 FILLER_4_334
*3979 FILLER_4_341
*3980 FILLER_4_348
*3981 FILLER_4_355
*3982 FILLER_4_362
*3983 FILLER_4_369
*3984 FILLER_4_376
*3985 FILLER_4_383
*3986 FILLER_4_390
*3987 FILLER_4_397
*3988 FILLER_4_404
*3989 FILLER_4_411
*3990 FILLER_4_418
*3991 FILLER_4_425
*3992 FILLER_4_432
*3993 FILLER_4_439
*3994 FILLER_4_446
*3995 FILLER_4_453
*3996 FILLER_4_460
*3997 FILLER_4_467
*3998 FILLER_4_474
*3999 FILLER_4_481
*4000 FILLER_4_488
*4001 FILLER_4_495
*4002 FILLER_4_502
*4003 FILLER_4_509
*4004 FILLER_4_516
*4005 FILLER_4_523
*4006 FILLER_4_530
*4007 FILLER_4_537
*4008 FILLER_4_544
*4009 FILLER_4_551
*4010 FILLER_4_558
*4011 FILLER_4_565
*4012 FILLER_4_572
*4013 FILLER_4_579
*4014 FILLER_4_586
*4015 FILLER_4_593
*4016 FILLER_4_600
*4017 FILLER_4_607
*4018 FILLER_4_614
*4019 FILLER_4_621
*4020 FILLER_4_628
*4021 FILLER_4_635
*4022 FILLER_4_642
*4023 FILLER_4_649
*4024 FILLER_4_656
*4025 FILLER_4_663
*4026 FILLER_4_670
*4027 FILLER_4_677
*4028 FILLER_4_684
*4029 FILLER_4_691
*4030 FILLER_4_698
*4031 FILLER_4_705
*4032 FILLER_4_712
*4033 FILLER_4_719
*4034 FILLER_4_726
*4035 FILLER_4_733
*4036 FILLER_4_740
*4037 FILLER_4_747
*4038 FILLER_4_754
*4039 FILLER_4_761
*4040 FILLER_4_768
*4041 FILLER_4_775
*4042 FILLER_4_782
*4043 FILLER_4_789
*4044 FILLER_4_796
*4045 FILLER_4_803
*4046 FILLER_4_810
*4047 FILLER_4_817
*4048 FILLER_4_824
*4049 FILLER_4_831
*4050 FILLER_4_838
*4051 FILLER_4_845
*4052 FILLER_4_852
*4053 FILLER_4_859
*4054 FILLER_4_866
*4055 FILLER_4_873
*4056 FILLER_4_880
*4057 FILLER_4_887
*4058 FILLER_4_89
*4059 FILLER_4_894
*4060 FILLER_4_901
*4061 FILLER_4_908
*4062 FILLER_4_915
*4063 FILLER_4_922
*4064 FILLER_4_929
*4065 FILLER_4_936
*4066 FILLER_4_943
*4067 FILLER_4_950
*4068 FILLER_4_957
*4069 FILLER_4_96
*4070 FILLER_4_964
*4071 FILLER_4_971
*4072 FILLER_4_978
*4073 FILLER_4_985
*4074 FILLER_4_992
*4075 FILLER_4_999
*4076 FILLER_50_1005
*4077 FILLER_50_1012
*4078 FILLER_50_1019
*4079 FILLER_50_1026
*4080 FILLER_50_1033
*4081 FILLER_50_1040
*4082 FILLER_50_1047
*4083 FILLER_50_1054
*4084 FILLER_50_1061
*4085 FILLER_50_1068
*4086 FILLER_50_1075
*4087 FILLER_50_1082
*4088 FILLER_50_1089
*4089 FILLER_50_1096
*4090 FILLER_50_1103
*4091 FILLER_50_1110
*4092 FILLER_50_1117
*4093 FILLER_50_1124
*4094 FILLER_50_1131
*4095 FILLER_50_1138
*4096 FILLER_50_1145
*4097 FILLER_50_1152
*4098 FILLER_50_1159
*4099 FILLER_50_1166
*4100 FILLER_50_1173
*4101 FILLER_50_1180
*4102 FILLER_50_1187
*4103 FILLER_50_1194
*4104 FILLER_50_1201
*4105 FILLER_50_1208
*4106 FILLER_50_1215
*4107 FILLER_50_1222
*4108 FILLER_50_1229
*4109 FILLER_50_1236
*4110 FILLER_50_1243
*4111 FILLER_50_1250
*4112 FILLER_50_1257
*4113 FILLER_50_1264
*4114 FILLER_50_1271
*4115 FILLER_50_1278
*4116 FILLER_50_1285
*4117 FILLER_50_1292
*4118 FILLER_50_1294
*4119 FILLER_50_781
*4120 FILLER_50_788
*4121 FILLER_50_795
*4122 FILLER_50_802
*4123 FILLER_50_809
*4124 FILLER_50_816
*4125 FILLER_50_823
*4126 FILLER_50_830
*4127 FILLER_50_837
*4128 FILLER_50_844
*4129 FILLER_50_851
*4130 FILLER_50_858
*4131 FILLER_50_865
*4132 FILLER_50_872
*4133 FILLER_50_879
*4134 FILLER_50_886
*4135 FILLER_50_893
*4136 FILLER_50_900
*4137 FILLER_50_907
*4138 FILLER_50_914
*4139 FILLER_50_921
*4140 FILLER_50_928
*4141 FILLER_50_935
*4142 FILLER_50_942
*4143 FILLER_50_949
*4144 FILLER_50_956
*4145 FILLER_50_963
*4146 FILLER_50_970
*4147 FILLER_50_977
*4148 FILLER_50_984
*4149 FILLER_50_991
*4150 FILLER_50_998
*4151 FILLER_5_1006
*4152 FILLER_5_1013
*4153 FILLER_5_1020
*4154 FILLER_5_1027
*4155 FILLER_5_103
*4156 FILLER_5_1034
*4157 FILLER_5_1041
*4158 FILLER_5_1048
*4159 FILLER_5_1055
*4160 FILLER_5_1062
*4161 FILLER_5_1069
*4162 FILLER_5_1076
*4163 FILLER_5_1083
*4164 FILLER_5_1090
*4165 FILLER_5_1097
*4166 FILLER_5_110
*4167 FILLER_5_1104
*4168 FILLER_5_1111
*4169 FILLER_5_1118
*4170 FILLER_5_1125
*4171 FILLER_5_1132
*4172 FILLER_5_1139
*4173 FILLER_5_1146
*4174 FILLER_5_1153
*4175 FILLER_5_1160
*4176 FILLER_5_1167
*4177 FILLER_5_117
*4178 FILLER_5_1174
*4179 FILLER_5_1181
*4180 FILLER_5_1188
*4181 FILLER_5_1195
*4182 FILLER_5_1202
*4183 FILLER_5_1209
*4184 FILLER_5_1216
*4185 FILLER_5_1223
*4186 FILLER_5_1230
*4187 FILLER_5_1237
*4188 FILLER_5_124
*4189 FILLER_5_1244
*4190 FILLER_5_1251
*4191 FILLER_5_1258
*4192 FILLER_5_1265
*4193 FILLER_5_1272
*4194 FILLER_5_1279
*4195 FILLER_5_1286
*4196 FILLER_5_1293
*4197 FILLER_5_131
*4198 FILLER_5_138
*4199 FILLER_5_145
*4200 FILLER_5_152
*4201 FILLER_5_159
*4202 FILLER_5_166
*4203 FILLER_5_173
*4204 FILLER_5_180
*4205 FILLER_5_187
*4206 FILLER_5_194
*4207 FILLER_5_201
*4208 FILLER_5_208
*4209 FILLER_5_215
*4210 FILLER_5_222
*4211 FILLER_5_229
*4212 FILLER_5_236
*4213 FILLER_5_243
*4214 FILLER_5_250
*4215 FILLER_5_257
*4216 FILLER_5_264
*4217 FILLER_5_271
*4218 FILLER_5_278
*4219 FILLER_5_285
*4220 FILLER_5_292
*4221 FILLER_5_299
*4222 FILLER_5_306
*4223 FILLER_5_313
*4224 FILLER_5_320
*4225 FILLER_5_327
*4226 FILLER_5_334
*4227 FILLER_5_341
*4228 FILLER_5_348
*4229 FILLER_5_355
*4230 FILLER_5_362
*4231 FILLER_5_369
*4232 FILLER_5_376
*4233 FILLER_5_383
*4234 FILLER_5_390
*4235 FILLER_5_397
*4236 FILLER_5_404
*4237 FILLER_5_411
*4238 FILLER_5_418
*4239 FILLER_5_425
*4240 FILLER_5_432
*4241 FILLER_5_439
*4242 FILLER_5_446
*4243 FILLER_5_453
*4244 FILLER_5_460
*4245 FILLER_5_467
*4246 FILLER_5_474
*4247 FILLER_5_481
*4248 FILLER_5_488
*4249 FILLER_5_495
*4250 FILLER_5_502
*4251 FILLER_5_509
*4252 FILLER_5_516
*4253 FILLER_5_523
*4254 FILLER_5_530
*4255 FILLER_5_537
*4256 FILLER_5_544
*4257 FILLER_5_551
*4258 FILLER_5_558
*4259 FILLER_5_565
*4260 FILLER_5_572
*4261 FILLER_5_579
*4262 FILLER_5_586
*4263 FILLER_5_593
*4264 FILLER_5_600
*4265 FILLER_5_607
*4266 FILLER_5_614
*4267 FILLER_5_621
*4268 FILLER_5_628
*4269 FILLER_5_635
*4270 FILLER_5_642
*4271 FILLER_5_649
*4272 FILLER_5_656
*4273 FILLER_5_663
*4274 FILLER_5_670
*4275 FILLER_5_677
*4276 FILLER_5_684
*4277 FILLER_5_691
*4278 FILLER_5_698
*4279 FILLER_5_705
*4280 FILLER_5_712
*4281 FILLER_5_719
*4282 FILLER_5_726
*4283 FILLER_5_733
*4284 FILLER_5_740
*4285 FILLER_5_747
*4286 FILLER_5_754
*4287 FILLER_5_761
*4288 FILLER_5_768
*4289 FILLER_5_775
*4290 FILLER_5_782
*4291 FILLER_5_789
*4292 FILLER_5_796
*4293 FILLER_5_803
*4294 FILLER_5_810
*4295 FILLER_5_817
*4296 FILLER_5_824
*4297 FILLER_5_831
*4298 FILLER_5_838
*4299 FILLER_5_845
*4300 FILLER_5_852
*4301 FILLER_5_859
*4302 FILLER_5_866
*4303 FILLER_5_873
*4304 FILLER_5_880
*4305 FILLER_5_887
*4306 FILLER_5_89
*4307 FILLER_5_894
*4308 FILLER_5_901
*4309 FILLER_5_908
*4310 FILLER_5_915
*4311 FILLER_5_922
*4312 FILLER_5_929
*4313 FILLER_5_936
*4314 FILLER_5_943
*4315 FILLER_5_950
*4316 FILLER_5_957
*4317 FILLER_5_96
*4318 FILLER_5_964
*4319 FILLER_5_971
*4320 FILLER_5_978
*4321 FILLER_5_985
*4322 FILLER_5_992
*4323 FILLER_5_999
*4324 FILLER_6_1006
*4325 FILLER_6_1013
*4326 FILLER_6_1020
*4327 FILLER_6_1027
*4328 FILLER_6_103
*4329 FILLER_6_1034
*4330 FILLER_6_1041
*4331 FILLER_6_1048
*4332 FILLER_6_1055
*4333 FILLER_6_1062
*4334 FILLER_6_1069
*4335 FILLER_6_1076
*4336 FILLER_6_1083
*4337 FILLER_6_1090
*4338 FILLER_6_1097
*4339 FILLER_6_110
*4340 FILLER_6_1104
*4341 FILLER_6_1111
*4342 FILLER_6_1118
*4343 FILLER_6_1125
*4344 FILLER_6_1132
*4345 FILLER_6_1139
*4346 FILLER_6_1146
*4347 FILLER_6_1153
*4348 FILLER_6_1160
*4349 FILLER_6_1167
*4350 FILLER_6_117
*4351 FILLER_6_1174
*4352 FILLER_6_1181
*4353 FILLER_6_1188
*4354 FILLER_6_1195
*4355 FILLER_6_1202
*4356 FILLER_6_1209
*4357 FILLER_6_1216
*4358 FILLER_6_1223
*4359 FILLER_6_1230
*4360 FILLER_6_1237
*4361 FILLER_6_124
*4362 FILLER_6_1244
*4363 FILLER_6_1251
*4364 FILLER_6_1258
*4365 FILLER_6_1265
*4366 FILLER_6_1272
*4367 FILLER_6_1279
*4368 FILLER_6_1286
*4369 FILLER_6_1293
*4370 FILLER_6_131
*4371 FILLER_6_138
*4372 FILLER_6_145
*4373 FILLER_6_152
*4374 FILLER_6_159
*4375 FILLER_6_166
*4376 FILLER_6_173
*4377 FILLER_6_180
*4378 FILLER_6_187
*4379 FILLER_6_194
*4380 FILLER_6_201
*4381 FILLER_6_208
*4382 FILLER_6_215
*4383 FILLER_6_222
*4384 FILLER_6_229
*4385 FILLER_6_236
*4386 FILLER_6_243
*4387 FILLER_6_250
*4388 FILLER_6_257
*4389 FILLER_6_264
*4390 FILLER_6_271
*4391 FILLER_6_278
*4392 FILLER_6_285
*4393 FILLER_6_292
*4394 FILLER_6_299
*4395 FILLER_6_306
*4396 FILLER_6_313
*4397 FILLER_6_320
*4398 FILLER_6_327
*4399 FILLER_6_334
*4400 FILLER_6_341
*4401 FILLER_6_348
*4402 FILLER_6_355
*4403 FILLER_6_362
*4404 FILLER_6_369
*4405 FILLER_6_376
*4406 FILLER_6_383
*4407 FILLER_6_390
*4408 FILLER_6_397
*4409 FILLER_6_404
*4410 FILLER_6_411
*4411 FILLER_6_418
*4412 FILLER_6_425
*4413 FILLER_6_432
*4414 FILLER_6_439
*4415 FILLER_6_446
*4416 FILLER_6_453
*4417 FILLER_6_460
*4418 FILLER_6_467
*4419 FILLER_6_474
*4420 FILLER_6_481
*4421 FILLER_6_488
*4422 FILLER_6_495
*4423 FILLER_6_502
*4424 FILLER_6_509
*4425 FILLER_6_516
*4426 FILLER_6_523
*4427 FILLER_6_530
*4428 FILLER_6_537
*4429 FILLER_6_544
*4430 FILLER_6_551
*4431 FILLER_6_558
*4432 FILLER_6_565
*4433 FILLER_6_572
*4434 FILLER_6_579
*4435 FILLER_6_586
*4436 FILLER_6_593
*4437 FILLER_6_600
*4438 FILLER_6_607
*4439 FILLER_6_614
*4440 FILLER_6_621
*4441 FILLER_6_628
*4442 FILLER_6_635
*4443 FILLER_6_642
*4444 FILLER_6_649
*4445 FILLER_6_656
*4446 FILLER_6_663
*4447 FILLER_6_670
*4448 FILLER_6_677
*4449 FILLER_6_684
*4450 FILLER_6_691
*4451 FILLER_6_698
*4452 FILLER_6_705
*4453 FILLER_6_712
*4454 FILLER_6_719
*4455 FILLER_6_726
*4456 FILLER_6_733
*4457 FILLER_6_740
*4458 FILLER_6_747
*4459 FILLER_6_754
*4460 FILLER_6_761
*4461 FILLER_6_768
*4462 FILLER_6_775
*4463 FILLER_6_782
*4464 FILLER_6_789
*4465 FILLER_6_796
*4466 FILLER_6_803
*4467 FILLER_6_810
*4468 FILLER_6_817
*4469 FILLER_6_824
*4470 FILLER_6_831
*4471 FILLER_6_838
*4472 FILLER_6_845
*4473 FILLER_6_852
*4474 FILLER_6_859
*4475 FILLER_6_866
*4476 FILLER_6_873
*4477 FILLER_6_880
*4478 FILLER_6_887
*4479 FILLER_6_89
*4480 FILLER_6_894
*4481 FILLER_6_901
*4482 FILLER_6_908
*4483 FILLER_6_915
*4484 FILLER_6_922
*4485 FILLER_6_929
*4486 FILLER_6_936
*4487 FILLER_6_943
*4488 FILLER_6_950
*4489 FILLER_6_957
*4490 FILLER_6_96
*4491 FILLER_6_964
*4492 FILLER_6_971
*4493 FILLER_6_978
*4494 FILLER_6_985
*4495 FILLER_6_992
*4496 FILLER_6_999
*4497 FILLER_7_1006
*4498 FILLER_7_1013
*4499 FILLER_7_1020
*4500 FILLER_7_1027
*4501 FILLER_7_103
*4502 FILLER_7_1034
*4503 FILLER_7_1041
*4504 FILLER_7_1048
*4505 FILLER_7_1055
*4506 FILLER_7_1062
*4507 FILLER_7_1069
*4508 FILLER_7_1076
*4509 FILLER_7_1083
*4510 FILLER_7_1090
*4511 FILLER_7_1097
*4512 FILLER_7_110
*4513 FILLER_7_1104
*4514 FILLER_7_1111
*4515 FILLER_7_1118
*4516 FILLER_7_1125
*4517 FILLER_7_1132
*4518 FILLER_7_1139
*4519 FILLER_7_1146
*4520 FILLER_7_1153
*4521 FILLER_7_1160
*4522 FILLER_7_1167
*4523 FILLER_7_117
*4524 FILLER_7_1174
*4525 FILLER_7_1181
*4526 FILLER_7_1188
*4527 FILLER_7_1195
*4528 FILLER_7_1202
*4529 FILLER_7_1209
*4530 FILLER_7_1216
*4531 FILLER_7_1223
*4532 FILLER_7_1230
*4533 FILLER_7_1237
*4534 FILLER_7_124
*4535 FILLER_7_1244
*4536 FILLER_7_1251
*4537 FILLER_7_1258
*4538 FILLER_7_1265
*4539 FILLER_7_1272
*4540 FILLER_7_1279
*4541 FILLER_7_1286
*4542 FILLER_7_1293
*4543 FILLER_7_131
*4544 FILLER_7_138
*4545 FILLER_7_145
*4546 FILLER_7_152
*4547 FILLER_7_159
*4548 FILLER_7_166
*4549 FILLER_7_173
*4550 FILLER_7_180
*4551 FILLER_7_187
*4552 FILLER_7_194
*4553 FILLER_7_201
*4554 FILLER_7_208
*4555 FILLER_7_215
*4556 FILLER_7_222
*4557 FILLER_7_229
*4558 FILLER_7_236
*4559 FILLER_7_243
*4560 FILLER_7_250
*4561 FILLER_7_257
*4562 FILLER_7_264
*4563 FILLER_7_271
*4564 FILLER_7_278
*4565 FILLER_7_285
*4566 FILLER_7_292
*4567 FILLER_7_299
*4568 FILLER_7_306
*4569 FILLER_7_313
*4570 FILLER_7_320
*4571 FILLER_7_327
*4572 FILLER_7_334
*4573 FILLER_7_341
*4574 FILLER_7_348
*4575 FILLER_7_355
*4576 FILLER_7_362
*4577 FILLER_7_369
*4578 FILLER_7_376
*4579 FILLER_7_383
*4580 FILLER_7_390
*4581 FILLER_7_397
*4582 FILLER_7_404
*4583 FILLER_7_411
*4584 FILLER_7_418
*4585 FILLER_7_425
*4586 FILLER_7_432
*4587 FILLER_7_439
*4588 FILLER_7_446
*4589 FILLER_7_453
*4590 FILLER_7_460
*4591 FILLER_7_467
*4592 FILLER_7_474
*4593 FILLER_7_481
*4594 FILLER_7_488
*4595 FILLER_7_495
*4596 FILLER_7_502
*4597 FILLER_7_509
*4598 FILLER_7_516
*4599 FILLER_7_523
*4600 FILLER_7_530
*4601 FILLER_7_537
*4602 FILLER_7_544
*4603 FILLER_7_551
*4604 FILLER_7_558
*4605 FILLER_7_565
*4606 FILLER_7_572
*4607 FILLER_7_579
*4608 FILLER_7_586
*4609 FILLER_7_593
*4610 FILLER_7_600
*4611 FILLER_7_607
*4612 FILLER_7_614
*4613 FILLER_7_621
*4614 FILLER_7_628
*4615 FILLER_7_635
*4616 FILLER_7_642
*4617 FILLER_7_649
*4618 FILLER_7_656
*4619 FILLER_7_663
*4620 FILLER_7_670
*4621 FILLER_7_677
*4622 FILLER_7_684
*4623 FILLER_7_691
*4624 FILLER_7_698
*4625 FILLER_7_705
*4626 FILLER_7_712
*4627 FILLER_7_719
*4628 FILLER_7_726
*4629 FILLER_7_733
*4630 FILLER_7_740
*4631 FILLER_7_747
*4632 FILLER_7_754
*4633 FILLER_7_761
*4634 FILLER_7_768
*4635 FILLER_7_775
*4636 FILLER_7_782
*4637 FILLER_7_789
*4638 FILLER_7_796
*4639 FILLER_7_803
*4640 FILLER_7_810
*4641 FILLER_7_817
*4642 FILLER_7_824
*4643 FILLER_7_831
*4644 FILLER_7_838
*4645 FILLER_7_845
*4646 FILLER_7_852
*4647 FILLER_7_859
*4648 FILLER_7_866
*4649 FILLER_7_873
*4650 FILLER_7_880
*4651 FILLER_7_887
*4652 FILLER_7_89
*4653 FILLER_7_894
*4654 FILLER_7_901
*4655 FILLER_7_908
*4656 FILLER_7_915
*4657 FILLER_7_922
*4658 FILLER_7_929
*4659 FILLER_7_936
*4660 FILLER_7_943
*4661 FILLER_7_950
*4662 FILLER_7_957
*4663 FILLER_7_96
*4664 FILLER_7_964
*4665 FILLER_7_971
*4666 FILLER_7_978
*4667 FILLER_7_985
*4668 FILLER_7_992
*4669 FILLER_7_999
*4670 FILLER_8_1001
*4671 FILLER_8_1008
*4672 FILLER_8_1015
*4673 FILLER_8_1022
*4674 FILLER_8_1029
*4675 FILLER_8_1036
*4676 FILLER_8_1043
*4677 FILLER_8_1050
*4678 FILLER_8_1057
*4679 FILLER_8_1064
*4680 FILLER_8_1071
*4681 FILLER_8_1078
*4682 FILLER_8_1085
*4683 FILLER_8_1092
*4684 FILLER_8_1099
*4685 FILLER_8_1106
*4686 FILLER_8_1113
*4687 FILLER_8_1120
*4688 FILLER_8_1127
*4689 FILLER_8_1134
*4690 FILLER_8_1141
*4691 FILLER_8_1148
*4692 FILLER_8_1155
*4693 FILLER_8_1162
*4694 FILLER_8_1169
*4695 FILLER_8_1176
*4696 FILLER_8_1183
*4697 FILLER_8_1190
*4698 FILLER_8_1197
*4699 FILLER_8_1204
*4700 FILLER_8_1211
*4701 FILLER_8_1218
*4702 FILLER_8_1225
*4703 FILLER_8_1232
*4704 FILLER_8_1239
*4705 FILLER_8_1246
*4706 FILLER_8_1253
*4707 FILLER_8_1260
*4708 FILLER_8_1267
*4709 FILLER_8_1274
*4710 FILLER_8_1281
*4711 FILLER_8_1288
*4712 FILLER_8_777
*4713 FILLER_8_784
*4714 FILLER_8_791
*4715 FILLER_8_798
*4716 FILLER_8_805
*4717 FILLER_8_812
*4718 FILLER_8_819
*4719 FILLER_8_826
*4720 FILLER_8_833
*4721 FILLER_8_840
*4722 FILLER_8_847
*4723 FILLER_8_854
*4724 FILLER_8_861
*4725 FILLER_8_868
*4726 FILLER_8_875
*4727 FILLER_8_882
*4728 FILLER_8_889
*4729 FILLER_8_896
*4730 FILLER_8_903
*4731 FILLER_8_910
*4732 FILLER_8_917
*4733 FILLER_8_924
*4734 FILLER_8_931
*4735 FILLER_8_938
*4736 FILLER_8_945
*4737 FILLER_8_952
*4738 FILLER_8_959
*4739 FILLER_8_966
*4740 FILLER_8_973
*4741 FILLER_8_980
*4742 FILLER_8_987
*4743 FILLER_8_994
*4744 FILLER_9_1001
*4745 FILLER_9_1008
*4746 FILLER_9_1015
*4747 FILLER_9_1022
*4748 FILLER_9_1029
*4749 FILLER_9_1036
*4750 FILLER_9_1043
*4751 FILLER_9_1050
*4752 FILLER_9_1057
*4753 FILLER_9_1064
*4754 FILLER_9_1071
*4755 FILLER_9_1078
*4756 FILLER_9_1085
*4757 FILLER_9_1092
*4758 FILLER_9_1099
*4759 FILLER_9_1106
*4760 FILLER_9_1113
*4761 FILLER_9_1120
*4762 FILLER_9_1127
*4763 FILLER_9_1134
*4764 FILLER_9_1141
*4765 FILLER_9_1148
*4766 FILLER_9_1155
*4767 FILLER_9_1162
*4768 FILLER_9_1169
*4769 FILLER_9_1176
*4770 FILLER_9_1183
*4771 FILLER_9_1190
*4772 FILLER_9_1197
*4773 FILLER_9_1204
*4774 FILLER_9_1211
*4775 FILLER_9_1218
*4776 FILLER_9_1225
*4777 FILLER_9_1232
*4778 FILLER_9_1239
*4779 FILLER_9_1246
*4780 FILLER_9_1253
*4781 FILLER_9_1260
*4782 FILLER_9_1267
*4783 FILLER_9_1274
*4784 FILLER_9_1281
*4785 FILLER_9_1288
*4786 FILLER_9_777
*4787 FILLER_9_784
*4788 FILLER_9_791
*4789 FILLER_9_798
*4790 FILLER_9_805
*4791 FILLER_9_812
*4792 FILLER_9_819
*4793 FILLER_9_826
*4794 FILLER_9_833
*4795 FILLER_9_840
*4796 FILLER_9_847
*4797 FILLER_9_854
*4798 FILLER_9_861
*4799 FILLER_9_868
*4800 FILLER_9_875
*4801 FILLER_9_882
*4802 FILLER_9_889
*4803 FILLER_9_896
*4804 FILLER_9_903
*4805 FILLER_9_910
*4806 FILLER_9_917
*4807 FILLER_9_924
*4808 FILLER_9_931
*4809 FILLER_9_938
*4810 FILLER_9_945
*4811 FILLER_9_952
*4812 FILLER_9_959
*4813 FILLER_9_966
*4814 FILLER_9_973
*4815 FILLER_9_980
*4816 FILLER_9_987
*4817 FILLER_9_994
*4818 IO_BOND_pad01_vdd
*4819 IO_BOND_pad02_vss
*4820 IO_BOND_pad03_iovdd
*4821 IO_BOND_pad04_iovss
*4822 IO_BOND_pad05_vss
*4823 IO_BOND_pad06_iovss
*4824 IO_BOND_pad07_vdda
*4825 IO_BOND_pad08_sense_p
*4826 IO_BOND_pad09_sense_n
*4827 IO_BOND_pad10_gate
*4828 IO_BOND_pad11_fault_n
*4829 IO_BOND_pad12_en
*4830 IO_BOND_pad13_trip_set
*4831 IO_BOND_pad14_sclk
*4832 IO_BOND_pad15_sdi
*4833 IO_BOND_pad16_sdo
*4834 IO_BOND_pad17_temp_out
*4835 IO_BOND_pad18_vref
*4836 IO_BOND_pad19_g_shared
*4837 IO_BOND_pad20_d_std
*4838 IO_BOND_pad21_d_elt
*4839 IO_BOND_pad22_hbt_e
*4840 IO_BOND_pad23_hbt_b
*4841 IO_BOND_pad24_hbt_c
*4842 IO_CORNER_NORTH_EAST_INST
*4843 IO_CORNER_NORTH_WEST_INST
*4844 IO_CORNER_SOUTH_EAST_INST
*4845 IO_CORNER_SOUTH_WEST_INST
*4846 IO_FILL_IO_EAST_0_0
*4847 IO_FILL_IO_EAST_0_20
*4848 IO_FILL_IO_EAST_0_30
*4849 IO_FILL_IO_EAST_0_32
*4850 IO_FILL_IO_EAST_1_0
*4851 IO_FILL_IO_EAST_1_20
*4852 IO_FILL_IO_EAST_1_30
*4853 IO_FILL_IO_EAST_2_0
*4854 IO_FILL_IO_EAST_2_20
*4855 IO_FILL_IO_EAST_2_30
*4856 IO_FILL_IO_EAST_3_0
*4857 IO_FILL_IO_EAST_3_20
*4858 IO_FILL_IO_EAST_3_30
*4859 IO_FILL_IO_EAST_4_0
*4860 IO_FILL_IO_EAST_4_20
*4861 IO_FILL_IO_EAST_4_30
*4862 IO_FILL_IO_EAST_5_0
*4863 IO_FILL_IO_EAST_5_20
*4864 IO_FILL_IO_EAST_5_30
*4865 IO_FILL_IO_EAST_6_0
*4866 IO_FILL_IO_EAST_6_20
*4867 IO_FILL_IO_EAST_6_30
*4868 IO_FILL_IO_EAST_6_32
*4869 IO_FILL_IO_NORTH_0_0
*4870 IO_FILL_IO_NORTH_0_20
*4871 IO_FILL_IO_NORTH_0_30
*4872 IO_FILL_IO_NORTH_0_32
*4873 IO_FILL_IO_NORTH_1_0
*4874 IO_FILL_IO_NORTH_1_20
*4875 IO_FILL_IO_NORTH_1_30
*4876 IO_FILL_IO_NORTH_2_0
*4877 IO_FILL_IO_NORTH_2_20
*4878 IO_FILL_IO_NORTH_2_30
*4879 IO_FILL_IO_NORTH_3_0
*4880 IO_FILL_IO_NORTH_3_20
*4881 IO_FILL_IO_NORTH_3_30
*4882 IO_FILL_IO_NORTH_4_0
*4883 IO_FILL_IO_NORTH_4_20
*4884 IO_FILL_IO_NORTH_4_30
*4885 IO_FILL_IO_NORTH_5_0
*4886 IO_FILL_IO_NORTH_5_20
*4887 IO_FILL_IO_NORTH_5_30
*4888 IO_FILL_IO_NORTH_6_0
*4889 IO_FILL_IO_NORTH_6_20
*4890 IO_FILL_IO_NORTH_6_30
*4891 IO_FILL_IO_NORTH_6_32
*4892 IO_FILL_IO_SOUTH_0_0
*4893 IO_FILL_IO_SOUTH_0_20
*4894 IO_FILL_IO_SOUTH_0_30
*4895 IO_FILL_IO_SOUTH_0_32
*4896 IO_FILL_IO_SOUTH_1_0
*4897 IO_FILL_IO_SOUTH_1_20
*4898 IO_FILL_IO_SOUTH_1_30
*4899 IO_FILL_IO_SOUTH_2_0
*4900 IO_FILL_IO_SOUTH_2_20
*4901 IO_FILL_IO_SOUTH_2_30
*4902 IO_FILL_IO_SOUTH_3_0
*4903 IO_FILL_IO_SOUTH_3_20
*4904 IO_FILL_IO_SOUTH_3_30
*4905 IO_FILL_IO_SOUTH_4_0
*4906 IO_FILL_IO_SOUTH_4_20
*4907 IO_FILL_IO_SOUTH_4_30
*4908 IO_FILL_IO_SOUTH_5_0
*4909 IO_FILL_IO_SOUTH_5_20
*4910 IO_FILL_IO_SOUTH_5_30
*4911 IO_FILL_IO_SOUTH_6_0
*4912 IO_FILL_IO_SOUTH_6_20
*4913 IO_FILL_IO_SOUTH_6_30
*4914 IO_FILL_IO_SOUTH_6_32
*4915 IO_FILL_IO_WEST_0_0
*4916 IO_FILL_IO_WEST_0_20
*4917 IO_FILL_IO_WEST_0_30
*4918 IO_FILL_IO_WEST_0_32
*4919 IO_FILL_IO_WEST_1_0
*4920 IO_FILL_IO_WEST_1_20
*4921 IO_FILL_IO_WEST_1_30
*4922 IO_FILL_IO_WEST_2_0
*4923 IO_FILL_IO_WEST_2_20
*4924 IO_FILL_IO_WEST_2_30
*4925 IO_FILL_IO_WEST_3_0
*4926 IO_FILL_IO_WEST_3_20
*4927 IO_FILL_IO_WEST_3_30
*4928 IO_FILL_IO_WEST_4_0
*4929 IO_FILL_IO_WEST_4_20
*4930 IO_FILL_IO_WEST_4_30
*4931 IO_FILL_IO_WEST_5_0
*4932 IO_FILL_IO_WEST_5_20
*4933 IO_FILL_IO_WEST_5_30
*4934 IO_FILL_IO_WEST_6_0
*4935 IO_FILL_IO_WEST_6_20
*4936 IO_FILL_IO_WEST_6_30
*4937 IO_FILL_IO_WEST_6_32
*4938 i_core\.u_bgr
*4939 i_core\.u_digital
*4940 i_core\.u_digital_1
*4941 i_core\.u_dose
*4942 i_core\.u_dut
*4943 i_core\.u_gate
*4944 i_core\.u_ls_en
*4945 i_core\.u_ls_mode
*4946 i_core\.u_ls_r4
*4947 i_core\.u_osc
*4948 i_core\.u_sense
*4949 i_core\.u_t2f
*4950 i_core\.u_trip
*4951 pad01_vdd
*4952 pad02_vss
*4953 pad03_iovdd
*4954 pad04_iovss
*4955 pad05_vss
*4956 pad06_iovss
*4957 pad07_vdda
*4958 pad08_sense_p
*4959 pad09_sense_n
*4960 pad10_gate
*4961 pad11_fault_n
*4962 pad12_en
*4963 pad13_trip_set
*4964 pad14_sclk
*4965 pad15_sdi
*4966 pad16_sdo
*4967 pad17_temp_out
*4968 pad18_vref
*4969 pad19_g_shared
*4970 pad20_d_std
*4971 pad21_d_elt
*4972 pad22_hbt_e
*4973 pad23_hbt_b
*4974 pad24_hbt_c
*4975 IO_EXPAND_SOUTH_0
*4976 IO_EXPAND_SOUTH_1
*4977 IO_EXPAND_SOUTH_2
*4978 IO_EXPAND_SOUTH_3
*4979 IO_EXPAND_SOUTH_4
*4980 IO_EXPAND_NORTH_0
*4981 IO_EXPAND_NORTH_1
*4982 IO_EXPAND_NORTH_2
*4983 IO_EXPAND_NORTH_3
*4984 IO_EXPAND_NORTH_4
*4985 IO_EXPAND_EAST_0
*4986 IO_EXPAND_EAST_1
*4987 IO_EXPAND_EAST_2
*4988 IO_EXPAND_EAST_3
*4989 IO_EXPAND_EAST_4
*4990 IO_EXPAND_WEST_0
*4991 IO_EXPAND_WEST_1
*4992 IO_EXPAND_WEST_2
*4993 IO_EXPAND_WEST_3
*4994 IO_EXPAND_WEST_4

*PORTS
D_ELT I
D_STD I
EN I
FAULT_N I
GATE I
G_SHARED I
HBT_B I
HBT_C I
HBT_E I
SCLK I
SDI I
SDO I
SENSE_N I
SENSE_P I
TEMP_OUT I
TRIP_SET I
VREF I

*D_NET *23 0.03833
*CONN
*I *4941:D_ELT I *D g1_dose_macro
*I *4971:padbare I *D sg13g2_IOPadAnalog
*CAP
1 *4941:D_ELT 0
2 *4971:padbare 4.22919e-05
3 *23:33 0.0127281
4 *23:19 0.0146841
5 *23:9 0.00639462
6 *23:7 0.00448084
7 *23:33 *24:31 0
8 *23:33 *31:17 0
*RES
1 *4971:padbare *23:7 20.4223 
2 *23:7 *23:9 60.4507 
3 *23:9 *23:19 49.8135 
4 *23:19 *23:33 43.406 
5 *23:33 *4941:D_ELT 20 
*END

*D_NET *24 0.0375587
*CONN
*I *4941:D_STD I *D g1_dose_macro
*I *4970:padbare I *D sg13g2_IOPadAnalog
*CAP
1 *4941:D_STD 0.000286891
2 *4970:padbare 2.19889e-05
3 *24:37 0.000978235
4 *24:31 0.0171309
5 *24:9 0.0164615
6 *24:37 *29:17 0.00133963
7 *24:37 *61:22 0.00133946
8 *23:33 *24:31 0
*RES
1 *4970:padbare *24:9 40.2678 
2 *24:9 *24:31 39.6482 
3 *24:31 *24:37 48.9713 
4 *24:37 *4941:D_STD 2.95095 
*END

*D_NET *25 0.103576
*CONN
*I *91:A I *D sg13g2_antennanp
*I *4939:en I *D g1_digital
*I *4943:en_core I *D g1_gate
*I *4962:p2c O *D sg13g2_IOPadIn
*CAP
1 *91:A 0
2 *4939:en 1.37502e-05
3 *4943:en_core 0.000341613
4 *4962:p2c 0.00300483
5 *25:64 0
6 *25:51 0.00187688
7 *25:31 0.00250018
8 *25:27 0.00481773
9 *25:21 0.00626159
10 *25:19 0.00546557
11 *25:17 0.00502684
12 *25:15 0.00502684
13 *25:13 0.00615377
14 *25:11 0.0084178
15 *25:9 0.00226402
16 *25:7 0.00300483
17 *4939:en *66:15 0
18 *4943:en_core *4943:clr_d 0
19 *4943:en_core *4943:hard_cmp 0
20 *4943:en_core *37:43 0.00055517
21 *25:11 *70:54 0
22 *25:13 *70:54 0
23 *25:17 *26:16 0
24 *25:17 *28:18 0
25 *25:17 *38:17 0.0239051
26 *25:17 *45:13 0.0235354
27 *25:21 *39:27 0
28 *25:21 *90:18 0
29 *25:27 *90:22 0
30 *25:31 *37:37 0.000161147
31 *25:31 *37:43 0.00124248
32 *25:51 *90:22 0
*RES
1 *4962:p2c *25:7 38.7666 
2 *25:7 *25:9 20 
3 *25:9 *25:11 30.6013 
4 *25:11 *25:13 83.8111 
5 *25:13 *25:15 20 
6 *25:15 *25:17 119.748 
7 *25:17 *25:19 20 
8 *25:19 *25:21 68.2375 
9 *25:21 *25:27 49.991 
10 *25:27 *25:31 49.3035 
11 *25:31 *4943:en_core 44.4599 
12 *25:27 *25:51 42.5673 
13 *25:51 *4939:en 40.1262 
14 *25:11 *25:64 40 
15 *25:64 *91:A 20 
*END

*D_NET *26 0.0472928
*CONN
*I *4961:c2p I *D sg13g2_IOPadOut4mA
*I *4943:fault_core I *D g1_gate
*CAP
1 *4961:c2p 0.000104939
2 *4943:fault_core 0
3 *26:20 0.004229
4 *26:18 0.00412406
5 *26:16 0.0136691
6 *26:14 0.0163578
7 *26:10 0.0038047
8 *26:6 0.001116
9 *26:14 *28:16 0
10 *26:14 *36:33 0
11 *26:14 *37:21 0.00388726
12 *26:14 *39:27 0
13 *26:16 *28:18 0
14 *26:16 *38:17 0
15 *26:16 *39:29 0
16 *26:16 *44:13 0
17 *25:17 *26:16 0
*RES
1 *4943:fault_core *26:6 40 
2 *26:6 *26:10 34.4406 
3 *26:10 *26:14 49.9524 
4 *26:14 *26:16 160.783 
5 *26:16 *26:18 20 
6 *26:18 *26:20 56.2792 
7 *26:20 *4961:c2p 41.3081 
*END

*D_NET *27 0.0432519
*CONN
*I *4941:G_SHARED I *D g1_dose_macro
*I *4969:padbare I *D sg13g2_IOPadAnalog
*CAP
1 *4941:G_SHARED 9.73185e-05
2 *4969:padbare 0.000467218
3 *27:17 0.00362018
4 *27:15 0.00352286
5 *27:13 0.0160821
6 *27:11 0.0165494
7 *27:17 *30:17 0
8 *27:17 *31:17 0.00291285
9 *27:17 *61:22 0
*RES
1 *4969:padbare *27:11 46.1491 
2 *27:11 *27:13 211.953 
3 *27:13 *27:15 20 
4 *27:15 *27:17 46.8238 
5 *27:17 *4941:G_SHARED 21.1485 
*END

*D_NET *28 0.0391406
*CONN
*I *4960:c2p I *D sg13g2_IOPadOut30mA
*I *4943:gate_core I *D g1_gate
*CAP
1 *4960:c2p 4.32204e-05
2 *4943:gate_core 0.000124357
3 *28:18 0.0152877
4 *28:16 0.0174855
5 *28:12 0.00342719
6 *28:8 0.00131058
7 *28:8 *42:14 0
8 *28:8 *62:18 0
9 *28:12 *85:25 0
10 *28:16 *36:33 0.00146207
11 *28:16 *39:27 0
12 *28:18 *37:17 0
13 *28:18 *45:13 0
14 *28:18 *85:31 0
15 *25:17 *28:18 0
16 *26:14 *28:16 0
17 *26:16 *28:18 0
*RES
1 *4943:gate_core *28:8 41.1845 
2 *28:8 *28:12 30.9798 
3 *28:12 *28:16 46.9242 
4 *28:16 *28:18 159.547 
5 *28:18 *4960:c2p 20.5459 
*END

*D_NET *29 0.118349
*CONN
*I *4942:HBT_B I *D g1_dut_macro
*I *4973:padbare I *D sg13g2_IOPadAnalog
*CAP
1 *4942:HBT_B 0.000272309
2 *4973:padbare 0.00011724
3 *29:17 0.0151577
4 *29:15 0.0148853
5 *29:13 0.0118683
6 *29:11 0.0118683
7 *29:9 0.00421177
8 *29:7 0.00432901
9 *29:9 *30:9 0
10 *29:13 *30:13 0.0446863
11 *29:13 *31:13 0
12 *29:17 *33:14 0.00961305
13 *29:17 *61:22 0
14 *24:37 *29:17 0.00133963
*RES
1 *4973:padbare *29:7 21.4111 
2 *29:7 *29:9 57.2062 
3 *29:9 *29:11 20 
4 *29:11 *29:13 209.234 
5 *29:13 *29:15 20 
6 *29:15 *29:17 157.137 
7 *29:17 *4942:HBT_B 23.0076 
*END

*D_NET *30 0.130087
*CONN
*I *4942:HBT_C I *D g1_dut_macro
*I *4974:padbare I *D sg13g2_IOPadAnalog
*CAP
1 *4942:HBT_C 0.000157446
2 *4974:padbare 0.000267099
3 *30:17 0.0162942
4 *30:15 0.0161367
5 *30:13 0.0115921
6 *30:11 0.0115921
7 *30:9 0.00841075
8 *30:7 0.00867785
9 *4942:HBT_C *4942:HBT_E 3.41939e-05
10 *30:13 *49:23 0
11 *30:13 *70:33 0
12 *30:17 *31:17 0
13 *30:17 *35:9 0.00330992
14 *30:17 *61:22 0
15 *30:17 *85:11 0.00892834
16 *27:17 *30:17 0
17 *29:9 *30:9 0
18 *29:13 *30:13 0.0446863
*RES
1 *4974:padbare *30:7 23.3887 
2 *30:7 *30:9 114.526 
3 *30:9 *30:11 20 
4 *30:11 *30:13 208.245 
5 *30:13 *30:15 20 
6 *30:15 *30:17 152.594 
7 *30:17 *4942:HBT_C 21.6274 
*END

*D_NET *31 0.0697455
*CONN
*I *4942:HBT_E I *D g1_dut_macro
*I *4972:padbare I *D sg13g2_IOPadAnalog
*CAP
1 *4942:HBT_E 6.60892e-05
2 *4972:padbare 0.0114616
3 *31:17 0.0143225
4 *31:15 0.0142564
5 *31:13 0.00460005
6 *31:11 0.00513619
7 *31:5 0.0119977
8 *31:5 *38:17 0
9 *31:5 *39:13 0
10 *31:5 *40:11 0
11 *31:5 *41:11 0
12 *31:5 *48:13 0
13 *31:5 *49:17 0
14 *31:5 *50:13 0.00156929
15 *31:5 *69:21 0
16 *31:11 *48:13 7.82905e-05
17 *31:11 *49:17 0
18 *31:17 *35:9 0.00331034
19 *4942:HBT_C *4942:HBT_E 3.41939e-05
20 *23:33 *31:17 0
21 *27:17 *31:17 0.00291285
22 *29:13 *31:13 0
23 *30:17 *31:17 0
*RES
1 *4972:padbare *31:5 151.956 
2 *31:5 *31:11 45.7268 
3 *31:11 *31:13 60.1726 
4 *31:13 *31:15 20 
5 *31:15 *31:17 151.008 
6 *31:17 *4942:HBT_E 20.5459 
*END

*D_NET *32 0.0176424
*CONN
*I *4946:in I *D g1_ls_up
*I *4939:bgr_r4 O *D g1_digital
*CAP
1 *4946:in 0.000194475
2 *4939:bgr_r4 0.000117355
3 *32:13 0.00128173
4 *32:9 0.00488359
5 *32:7 0.00391369
6 *32:7 *35:9 0
7 *32:9 *74:9 0.00725154
8 *32:13 *75:14 0
9 *32:13 *76:22 0
*RES
1 *4939:bgr_r4 *32:7 21.218 
2 *32:7 *32:9 48.3379 
3 *32:9 *32:13 31.4742 
4 *32:13 *4946:in 22.1527 
*END

*D_NET *33 0.0661669
*CONN
*I *4938:r4 I *D g1_bgr
*I *4946:out O *D g1_ls_up
*CAP
1 *4938:r4 0.000118328
2 *4946:out 7.33689e-05
3 *33:22 0.0100535
4 *33:20 0.0099352
5 *33:18 0.00104692
6 *33:14 0.00637475
7 *33:12 0.00673745
8 *33:8 0.00148299
9 *4938:r4 *68:11 1.78082e-05
10 *4938:r4 *88:11 0
11 *33:12 *76:22 0
12 *33:14 *42:8 0
13 *33:14 *56:11 0.00116173
14 *33:14 *65:8 0
15 *33:14 *66:15 0
16 *33:14 *76:12 0
17 *33:14 *76:14 0
18 *33:14 *82:9 0
19 *33:18 *63:12 0
20 *33:22 *64:27 0.0195518
21 *29:17 *33:14 0.00961305
*RES
1 *4946:out *33:8 40.9682 
2 *33:8 *33:12 36.9126 
3 *33:12 *33:14 64.3441 
4 *33:14 *33:18 31.7214 
5 *33:18 *33:20 20 
6 *33:20 *33:22 130.903 
7 *33:22 *4938:r4 20.9167 
*END

*D_NET *35 0.0169912
*CONN
*I *4943:clr_d I *D g1_gate
*I *4939:clr_d O *D g1_digital
*CAP
1 *4943:clr_d 0.00137155
2 *4939:clr_d 0.00201718
3 *35:9 0.00338873
4 *4943:clr_d *4943:trip_d 0.00359343
5 *4943:clr_d *4943:fast_en 0
6 *35:9 *82:9 0
7 *4943:en_core *4943:clr_d 0
8 *30:17 *35:9 0.00330992
9 *31:17 *35:9 0.00331034
10 *32:7 *35:9 0
*RES
1 *4939:clr_d *35:9 44.8668 
2 *35:9 *4943:clr_d 39.0241 
*END

*D_NET *36 0.0738712
*CONN
*I *4950:clk I *D g1_trip
*I *4939:cmp_clk O *D g1_digital
*CAP
1 *4950:clk 5.63848e-05
2 *4939:cmp_clk 4.11661e-05
3 *36:43 0.00774055
4 *36:41 0.00840443
5 *36:35 0.0120562
6 *36:33 0.0123294
7 *36:27 0.0104191
8 *36:9 0.00946683
9 *4950:clk *37:7 0
10 *36:9 *56:11 0
11 *36:9 *66:11 0
12 *36:27 *37:33 0
13 *36:27 *37:59 0
14 *36:35 *43:15 0
15 *36:41 *4950:dac_hard[1] 0.00100226
16 *36:41 *4950:dac_hard[2] 1.7958e-05
17 *36:41 *4950:dac_hard[4] 0
18 *36:41 *37:13 0
19 *36:43 *4950:dac_hard[4] 0.000111853
20 *36:43 *4950:dac_hard[6] 0
21 *36:43 *37:9 0.0107631
22 *36:43 *37:13 0
23 *36:43 *46:23 0
24 *26:14 *36:33 0
25 *28:16 *36:33 0.00146207
*RES
1 *4939:cmp_clk *36:9 40.4764 
2 *36:9 *36:27 38.5905 
3 *36:27 *36:33 49.8365 
4 *36:33 *36:35 112.826 
5 *36:35 *36:41 27.3748 
6 *36:41 *36:43 99.4259 
7 *36:43 *4950:clk 20.5459 
*END

*D_NET *37 0.09305
*CONN
*I *4939:cmp_hard I *D g1_digital
*I *4943:hard_cmp I *D g1_gate
*I *4950:cmp_hard O *D g1_trip
*CAP
1 *4939:cmp_hard 0.000380045
2 *4943:hard_cmp 0.000167655
3 *4950:cmp_hard 8.35856e-05
4 *37:59 0.0023429
5 *37:43 0.00100886
6 *37:37 0.00289731
7 *37:33 0.00214567
8 *37:27 0.0021935
9 *37:21 0.00485204
10 *37:19 0.00471097
11 *37:17 0.0065958
12 *37:15 0.0065958
13 *37:13 0.00297855
14 *37:9 0.00839374
15 *37:7 0.00549877
16 *4939:cmp_hard *64:15 0.00022655
17 *4939:cmp_hard *76:12 0.000678445
18 *4939:cmp_hard *82:9 0
19 *37:7 *38:11 0
20 *37:13 *4950:dac_hard[1] 0
21 *37:13 *4950:dac_hard[2] 1.7958e-05
22 *37:17 *42:18 0.0243853
23 *37:17 *85:31 0
24 *37:43 *4943:trip_d 0.000287422
25 *37:59 *66:11 0
26 *4943:en_core *4943:hard_cmp 0
27 *4943:en_core *37:43 0.00055517
28 *4950:clk *37:7 0
29 *25:31 *37:37 0.000161147
30 *25:31 *37:43 0.00124248
31 *26:14 *37:21 0.00388726
32 *28:18 *37:17 0
33 *36:27 *37:33 0
34 *36:27 *37:59 0
35 *36:41 *37:13 0
36 *36:43 *37:9 0.0107631
37 *36:43 *37:13 0
*RES
1 *4950:cmp_hard *37:7 20.7931 
2 *37:7 *37:9 72.0485 
3 *37:9 *37:13 34.814 
4 *37:13 *37:15 20 
5 *37:15 *37:17 114.062 
6 *37:17 *37:19 20 
7 *37:19 *37:21 62.3974 
8 *37:21 *37:27 41.8334 
9 *37:27 *37:33 47.3362 
10 *37:33 *37:37 21.1845 
11 *37:37 *37:43 31.639 
12 *37:43 *4943:hard_cmp 41.6686 
13 *37:37 *37:59 42.1038 
14 *37:59 *4939:cmp_hard 44.5449 
*END

*D_NET *38 0.153942
*CONN
*I *93:A I *D sg13g2_antennanp
*I *92:A I *D sg13g2_antennanp
*I *4939:cmp_soft I *D g1_digital
*I *4950:cmp_soft O *D g1_trip
*CAP
1 *93:A 6.40026e-05
2 *92:A 0
3 *4939:cmp_soft 0.00089528
4 *4950:cmp_soft 0.00170511
5 *38:34 0.000843735
6 *38:21 0.0052864
7 *38:19 0.00439112
8 *38:17 0.0180933
9 *38:15 0.0180933
10 *38:13 0.00662747
11 *38:11 0.00911232
12 *38:13 *4950:dac_hard[0] 0
13 *38:17 *44:13 0.0429121
14 *38:17 *45:13 0
15 *38:17 *69:21 0.0156251
16 *38:21 *70:41 0.00638789
17 *25:17 *38:17 0.0239051
18 *26:16 *38:17 0
19 *31:5 *38:17 0
20 *37:7 *38:11 0
*RES
1 *4950:cmp_soft *38:11 41.0944 
2 *38:11 *38:13 83.3785 
3 *38:13 *38:15 20 
4 *38:15 *38:17 326.901 
5 *38:17 *38:19 20 
6 *38:19 *38:21 58.0714 
7 *38:21 *4939:cmp_soft 32.1875 
8 *38:11 *38:34 29.991 
9 *38:34 *92:A 40 
10 *38:34 *93:A 40.8446 
*END

*D_NET *39 0.08769
*CONN
*I *4950:dac_hard[0] I *D g1_trip
*I *4939:dac_hard[0] O *D g1_digital
*CAP
1 *4950:dac_hard[0] 0.000350807
2 *4939:dac_hard[0] 0.00043437
3 *39:29 0.00796375
4 *39:27 0.0079492
5 *39:21 0.00354694
6 *39:19 0.00381764
7 *39:13 0.00104133
8 *4950:dac_hard[0] *4950:dac_hard[1] 5.79972e-06
9 *39:13 *40:11 0
10 *39:13 *47:11 0.000194125
11 *39:13 *48:13 0
12 *39:13 *49:17 0
13 *39:19 *40:15 0.00194354
14 *39:19 *46:15 0
15 *39:19 *48:19 0.00107656
16 *39:21 *43:15 0.0177214
17 *39:21 *46:15 0.0177878
18 *39:21 *48:19 0
19 *39:29 *44:13 0.0238567
20 *25:21 *39:27 0
21 *26:14 *39:27 0
22 *26:16 *39:29 0
23 *28:16 *39:27 0
24 *31:5 *39:13 0
25 *38:13 *4950:dac_hard[0] 0
*RES
1 *4939:dac_hard[0] *39:13 43.726 
2 *39:13 *39:19 31.2064 
3 *39:19 *39:21 82.4824 
4 *39:21 *39:27 41.6278 
5 *39:27 *39:29 111.096 
6 *39:29 *4950:dac_hard[0] 43.9758 
*END

*D_NET *40 0.106792
*CONN
*I *4950:dac_hard[1] I *D g1_trip
*I *4939:dac_hard[1] O *D g1_digital
*CAP
1 *4950:dac_hard[1] 0.000721545
2 *4939:dac_hard[1] 0.000191817
3 *40:23 0.00836058
4 *40:21 0.00774976
5 *40:15 0.000989899
6 *40:11 0.00107099
7 *4950:dac_hard[1] *4950:dac_hard[2] 1.05995e-05
8 *4950:dac_hard[1] *4950:dac_hard[3] 0
9 *4950:dac_hard[1] *4950:dac_hard[4] 0.00106706
10 *4950:dac_hard[1] *41:25 0
11 *40:11 *49:17 0
12 *40:15 *41:17 0
13 *40:15 *46:15 0
14 *40:23 *41:19 0.0418656
15 *40:23 *43:15 0
16 *40:23 *46:15 0.0418126
17 *4950:dac_hard[0] *4950:dac_hard[1] 5.79972e-06
18 *31:5 *40:11 0
19 *36:41 *4950:dac_hard[1] 0.00100226
20 *37:13 *4950:dac_hard[1] 0
21 *39:13 *40:11 0
22 *39:19 *40:15 0.00194354
*RES
1 *4939:dac_hard[1] *40:11 41.733 
2 *40:11 *40:15 31.227 
3 *40:15 *40:21 40.7519 
4 *40:21 *40:23 195.391 
5 *40:23 *4950:dac_hard[1] 48.3224 
*END

*D_NET *41 0.0904861
*CONN
*I *4950:dac_hard[2] I *D g1_trip
*I *4939:dac_hard[2] O *D g1_digital
*CAP
1 *4950:dac_hard[2] 0.000305702
2 *4939:dac_hard[2] 7.34327e-05
3 *41:25 0.00104816
4 *41:19 0.00989481
5 *41:17 0.0103241
6 *41:11 0.00124516
7 *41:11 *49:17 0
8 *41:17 *46:15 0.000454055
9 *41:17 *70:33 0
10 *41:19 *46:15 0
11 *41:19 *70:33 0.0149954
12 *41:19 *89:9 0.00839225
13 *41:25 *4950:dac_hard[3] 0
14 *41:25 *4950:dac_hard[5] 0.000662419
15 *41:25 *46:23 0.00117845
16 *4950:dac_hard[1] *4950:dac_hard[2] 1.05995e-05
17 *4950:dac_hard[1] *41:25 0
18 *31:5 *41:11 0
19 *36:41 *4950:dac_hard[2] 1.7958e-05
20 *37:13 *4950:dac_hard[2] 1.7958e-05
21 *40:15 *41:17 0
22 *40:23 *41:19 0.0418656
*RES
1 *4939:dac_hard[2] *41:11 40.7802 
2 *41:11 *41:17 31.0725 
3 *41:17 *41:19 195.865 
4 *41:19 *41:25 48.3224 
5 *41:25 *4950:dac_hard[2] 42.9973 
*END

*D_NET *42 0.0767984
*CONN
*I *4950:dac_hard[3] I *D g1_trip
*I *4939:dac_hard[3] O *D g1_digital
*CAP
1 *4950:dac_hard[3] 0.000671811
2 *4939:dac_hard[3] 1.35518e-05
3 *42:18 0.00594793
4 *42:16 0.00527612
5 *42:14 0.00508421
6 *42:12 0.00688584
7 *42:8 0.00181519
8 *4950:dac_hard[3] *4950:dac_hard[4] 0.00115781
9 *4950:dac_hard[3] *4950:dac_hard[6] 0.000803533
10 *42:8 *66:15 0
11 *42:12 *62:14 0
12 *42:14 *63:14 0
13 *42:14 *88:13 0.000529681
14 *42:18 *54:9 0
15 *42:18 *85:31 0.0242274
16 *4950:dac_hard[1] *4950:dac_hard[3] 0
17 *28:8 *42:14 0
18 *33:14 *42:8 0
19 *37:17 *42:18 0.0243853
20 *41:25 *4950:dac_hard[3] 0
*RES
1 *4939:dac_hard[3] *42:8 40.1262 
2 *42:8 *42:12 37.613 
3 *42:12 *42:14 60.8833 
4 *42:14 *42:16 20 
5 *42:16 *42:18 123.209 
6 *42:18 *4950:dac_hard[3] 47.9619 
*END

*D_NET *43 0.0745109
*CONN
*I *4950:dac_hard[4] I *D g1_trip
*I *4939:dac_hard[4] O *D g1_digital
*CAP
1 *4950:dac_hard[4] 0.000680725
2 *4939:dac_hard[4] 0.000478656
3 *43:15 0.0183545
4 *43:13 0.0176738
5 *43:11 0.000478656
6 *4950:dac_hard[4] *4950:dac_hard[6] 2.30781e-05
7 *43:11 *50:13 0
8 *43:11 *51:13 0
9 *43:11 *52:9 0
10 *43:11 *53:9 0.0009403
11 *43:11 *71:13 0
12 *43:15 *46:15 0
13 *43:15 *48:19 0
14 *43:15 *48:21 0.0158231
15 *43:15 *50:23 0
16 *4950:dac_hard[1] *4950:dac_hard[4] 0.00106706
17 *4950:dac_hard[3] *4950:dac_hard[4] 0.00115781
18 *36:35 *43:15 0
19 *36:41 *4950:dac_hard[4] 0
20 *36:43 *4950:dac_hard[4] 0.000111853
21 *39:21 *43:15 0.0177214
22 *40:23 *43:15 0
*RES
1 *4939:dac_hard[4] *43:11 45.9354 
2 *43:11 *43:13 20 
3 *43:13 *43:15 193.166 
4 *43:15 *4950:dac_hard[4] 48.6108 
*END

*D_NET *44 0.0885349
*CONN
*I *4950:dac_hard[5] I *D g1_trip
*I *4939:dac_hard[5] O *D g1_digital
*CAP
1 *4950:dac_hard[5] 0.000430723
2 *4939:dac_hard[5] 0.00041312
3 *44:13 0.00973979
4 *44:11 0.00972218
5 *4950:dac_hard[5] *4950:dac_hard[6] 0.000797793
6 *4950:dac_hard[5] *46:23 0
7 *44:11 *4939:sclk 0
8 *44:11 *51:11 0
9 *26:16 *44:13 0
10 *38:17 *44:13 0.0429121
11 *39:29 *44:13 0.0238567
12 *41:25 *4950:dac_hard[5] 0.000662419
*RES
1 *4939:dac_hard[5] *44:11 24.3131 
2 *44:11 *44:13 198.605 
3 *44:13 *4950:dac_hard[5] 45.3354 
*END

*D_NET *45 0.0842673
*CONN
*I *4950:dac_hard[6] I *D g1_trip
*I *4939:dac_hard[6] O *D g1_digital
*CAP
1 *4950:dac_hard[6] 0.00051434
2 *4939:dac_hard[6] 0.000384526
3 *45:13 0.0141573
4 *45:11 0.0140275
5 *4950:dac_hard[6] *46:23 3.07708e-06
6 *45:11 *51:11 0
7 *45:11 *71:11 0
8 *45:13 *51:13 0.0152484
9 *45:13 *69:21 0.0147723
10 *4950:dac_hard[3] *4950:dac_hard[6] 0.000803533
11 *4950:dac_hard[4] *4950:dac_hard[6] 2.30781e-05
12 *4950:dac_hard[5] *4950:dac_hard[6] 0.000797793
13 *25:17 *45:13 0.0235354
14 *28:18 *45:13 0
15 *36:43 *4950:dac_hard[6] 0
16 *38:17 *45:13 0
*RES
1 *4939:dac_hard[6] *45:11 23.6642 
2 *45:11 *45:13 195.885 
3 *45:13 *4950:dac_hard[6] 46.2933 
*END

*D_NET *46 0.0891832
*CONN
*I *4950:dac_hard[7] I *D g1_trip
*I *4939:dac_hard[7] O *D g1_digital
*CAP
1 *4950:dac_hard[7] 0
2 *4939:dac_hard[7] 0.000187868
3 *46:23 0.000837143
4 *46:15 0.0136987
5 *46:13 0.0128616
6 *46:11 0.000187868
7 *46:11 *4939:sclk 0
8 *46:11 *47:11 0.000140264
9 *46:11 *47:13 0
10 *46:11 *48:13 0
11 *46:11 *54:9 3.37847e-05
12 *4950:dac_hard[5] *46:23 0
13 *4950:dac_hard[6] *46:23 3.07708e-06
14 *36:43 *46:23 0
15 *39:19 *46:15 0
16 *39:21 *46:15 0.0177878
17 *40:15 *46:15 0
18 *40:23 *46:15 0.0418126
19 *41:17 *46:15 0.000454055
20 *41:19 *46:15 0
21 *41:25 *46:23 0.00117845
22 *43:15 *46:15 0
*RES
1 *4939:dac_hard[7] *46:11 41.7381 
2 *46:11 *46:13 20 
3 *46:13 *46:15 197.616 
4 *46:15 *46:23 30.1146 
5 *46:23 *4950:dac_hard[7] 20 
*END

*D_NET *47 0.0325412
*CONN
*I *4950:dac_soft[0] I *D g1_trip
*I *4939:dac_soft[0] O *D g1_digital
*CAP
1 *4950:dac_soft[0] 0.000732684
2 *4939:dac_soft[0] 0.000410821
3 *47:19 0.00140257
4 *47:13 0.00465574
5 *47:11 0.00439667
6 *4950:dac_soft[0] *4950:dac_soft[1] 1.05995e-05
7 *4950:dac_soft[0] *4950:dac_soft[4] 0
8 *47:11 *48:13 0
9 *47:11 *49:17 0.00115418
10 *47:11 *50:13 0
11 *47:13 *54:9 0.0158438
12 *47:13 *61:18 0.00290437
13 *47:19 *51:19 0.000695362
14 *47:19 *52:15 0
15 *47:19 *63:14 0
16 *39:13 *47:11 0.000194125
17 *46:11 *47:11 0.000140264
18 *46:11 *47:13 0
*RES
1 *4939:dac_soft[0] *47:11 26.2907 
2 *47:11 *47:13 73.7686 
3 *47:13 *47:19 47.6735 
4 *47:19 *4950:dac_soft[0] 7.931 
*END

*D_NET *48 0.0443567
*CONN
*I *4950:dac_soft[1] I *D g1_trip
*I *4939:dac_soft[1] O *D g1_digital
*CAP
1 *4950:dac_soft[1] 0.000623358
2 *4939:dac_soft[1] 0.00100513
3 *48:21 0.00353775
4 *48:19 0.0033025
5 *48:13 0.00139324
6 *4950:dac_soft[1] *54:17 0.00103375
7 *4950:dac_soft[1] *66:23 0
8 *48:13 *50:13 0
9 *48:13 *52:9 0
10 *48:13 *54:9 0
11 *48:19 *50:21 0.00101342
12 *48:21 *50:21 0
13 *48:21 *50:23 0.015459
14 *4950:dac_soft[0] *4950:dac_soft[1] 1.05995e-05
15 *31:5 *48:13 0
16 *31:11 *48:13 7.82905e-05
17 *39:13 *48:13 0
18 *39:19 *48:19 0.00107656
19 *39:21 *48:19 0
20 *43:15 *48:19 0
21 *43:15 *48:21 0.0158231
22 *46:11 *48:13 0
23 *47:11 *48:13 0
*RES
1 *4939:dac_soft[1] *48:13 49.1902 
2 *48:13 *48:19 26.9937 
3 *48:19 *48:21 73.3772 
4 *48:21 *4950:dac_soft[1] 47.4572 
*END

*D_NET *49 0.0330705
*CONN
*I *4950:dac_soft[2] I *D g1_trip
*I *4939:dac_soft[2] O *D g1_digital
*CAP
1 *4950:dac_soft[2] 0.000525796
2 *4939:dac_soft[2] 0.000745378
3 *49:29 0.00455957
4 *49:27 0.00429368
5 *49:23 0.000818983
6 *49:17 0.00130445
7 *4950:dac_soft[2] *4950:dac_soft[3] 0.00101621
8 *4950:dac_soft[2] *54:17 0.00101621
9 *49:23 *70:33 0.00215468
10 *49:29 *50:23 0.0154814
11 *30:13 *49:23 0
12 *31:5 *49:17 0
13 *31:11 *49:17 0
14 *39:13 *49:17 0
15 *40:11 *49:17 0
16 *41:11 *49:17 0
17 *47:11 *49:17 0.00115418
*RES
1 *4939:dac_soft[2] *49:17 49.5867 
2 *49:17 *49:23 49.991 
3 *49:23 *49:27 22.0497 
4 *49:27 *49:29 71.791 
5 *49:29 *4950:dac_soft[2] 46.7877 
*END

*D_NET *50 0.0451536
*CONN
*I *4950:dac_soft[3] I *D g1_trip
*I *4939:dac_soft[3] O *D g1_digital
*CAP
1 *4950:dac_soft[3] 0.000577195
2 *4939:dac_soft[3] 0.000879895
3 *50:23 0.00343269
4 *50:21 0.00330334
5 *50:13 0.00132774
6 *4950:dac_soft[3] *54:17 0
7 *4950:dac_soft[3] *89:15 0.00109345
8 *50:13 *69:21 0
9 *4950:dac_soft[2] *4950:dac_soft[3] 0.00101621
10 *31:5 *50:13 0.00156929
11 *43:11 *50:13 0
12 *43:15 *50:23 0
13 *47:11 *50:13 0
14 *48:13 *50:13 0
15 *48:19 *50:21 0.00101342
16 *48:21 *50:21 0
17 *48:21 *50:23 0.015459
18 *49:29 *50:23 0.0154814
*RES
1 *4939:dac_soft[3] *50:13 30.936 
2 *50:13 *50:21 46.7053 
3 *50:21 *50:23 72.4296 
4 *50:23 *4950:dac_soft[3] 47.313 
*END

*D_NET *51 0.0405902
*CONN
*I *4950:dac_soft[4] I *D g1_trip
*I *4939:dac_soft[4] O *D g1_digital
*CAP
1 *4950:dac_soft[4] 0.000611403
2 *4939:dac_soft[4] 0.000368711
3 *51:19 0.00108955
4 *51:13 0.0032457
5 *51:11 0.00313626
6 *4950:dac_soft[4] *4950:dac_soft[5] 0.00148009
7 *51:13 *71:13 0.0147147
8 *51:19 *52:15 0
9 *51:19 *63:14 0
10 *4950:dac_soft[0] *4950:dac_soft[4] 0
11 *43:11 *51:13 0
12 *44:11 *51:11 0
13 *45:11 *51:11 0
14 *45:13 *51:13 0.0152484
15 *47:19 *51:19 0.000695362
*RES
1 *4939:dac_soft[4] *51:11 23.4479 
2 *51:11 *51:13 71.0494 
3 *51:13 *51:19 45.9431 
4 *51:19 *4950:dac_soft[4] 8.2194 
*END

*D_NET *52 0.0423631
*CONN
*I *4950:dac_soft[5] I *D g1_trip
*I *4939:dac_soft[5] O *D g1_digital
*CAP
1 *4950:dac_soft[5] 0.000886964
2 *4939:dac_soft[5] 7.63305e-05
3 *52:15 0.00162359
4 *52:9 0.00349029
5 *52:7 0.00283
6 *4950:dac_soft[5] *4950:dac_soft[6] 2.51882e-05
7 *52:9 *53:9 0.0152059
8 *52:9 *54:9 0.0154696
9 *52:15 *53:15 0.00127511
10 *4950:dac_soft[4] *4950:dac_soft[5] 0.00148009
11 *43:11 *52:9 0
12 *47:19 *52:15 0
13 *48:13 *52:9 0
14 *51:19 *52:15 0
*RES
1 *4939:dac_soft[5] *52:7 20.5923 
2 *52:7 *52:9 71.5979 
3 *52:9 *52:15 48.755 
4 *52:15 *4950:dac_soft[5] 9.1979 
*END

*D_NET *53 0.0303442
*CONN
*I *4950:dac_soft[6] I *D g1_trip
*I *4939:dac_soft[6] O *D g1_digital
*CAP
1 *4950:dac_soft[6] 0.00103485
2 *4939:dac_soft[6] 0.000100448
3 *53:15 0.00173887
4 *53:9 0.00464365
5 *53:7 0.00404008
6 *53:9 *71:13 0
7 *53:15 *70:29 0.00133973
8 *4950:dac_soft[5] *4950:dac_soft[6] 2.51882e-05
9 *43:11 *53:9 0.0009403
10 *52:9 *53:9 0.0152059
11 *52:15 *53:15 0.00127511
*RES
1 *4939:dac_soft[6] *53:7 20.8085 
2 *53:7 *53:9 70.3619 
3 *53:9 *53:15 48.9713 
4 *53:15 *4950:dac_soft[6] 9.4863 
*END

*D_NET *54 0.0425881
*CONN
*I *4950:dac_soft[7] I *D g1_trip
*I *4939:dac_soft[7] O *D g1_digital
*CAP
1 *4950:dac_soft[7] 0
2 *4939:dac_soft[7] 4.80767e-05
3 *54:17 0.000861935
4 *54:9 0.00448541
5 *54:7 0.00367155
6 *54:9 *61:18 0
7 *54:17 *66:23 0
8 *54:17 *89:17 0.000124028
9 *4950:dac_soft[1] *54:17 0.00103375
10 *4950:dac_soft[2] *54:17 0.00101621
11 *4950:dac_soft[3] *54:17 0
12 *42:18 *54:9 0
13 *46:11 *54:9 3.37847e-05
14 *47:13 *54:9 0.0158438
15 *48:13 *54:9 0
16 *52:9 *54:9 0.0154696
*RES
1 *4939:dac_soft[7] *54:7 20.3759 
2 *54:7 *54:9 80.7443 
3 *54:9 *54:17 30.0837 
4 *54:17 *4950:dac_soft[7] 20 
*END

*D_NET *56 0.00823769
*CONN
*I *4943:fast_en I *D g1_gate
*I *4939:fast_en O *D g1_digital
*CAP
1 *4943:fast_en 0.000972285
2 *4939:fast_en 0.000709022
3 *56:21 0.00153682
4 *56:11 0.00127356
5 *56:11 *66:11 0
6 *56:11 *76:14 0
7 *56:11 *82:9 0.00112905
8 *56:21 *4943:trip_d 0.00145522
9 *4943:clr_d *4943:fast_en 0
10 *33:14 *56:11 0.00116173
11 *36:9 *56:11 0
*RES
1 *4939:fast_en *56:11 48.7318 
2 *56:11 *56:21 48.0958 
3 *56:21 *4943:fast_en 10.5575 
*END

*D_NET *59 0.028019
*CONN
*I *4948:iptat I *D g1_sense
*I *4938:iptat O *D g1_bgr
*CAP
1 *4948:iptat 0.000133677
2 *4938:iptat 0.00100615
3 *59:23 0.00331791
4 *59:21 0.00318424
5 *59:19 0.0066747
6 *59:17 0.00677247
7 *59:11 0.00110393
8 *4948:iptat *4948:vref 0
9 *4948:iptat *60:7 0.000201087
10 *59:11 *67:11 0
11 *59:11 *68:11 0
12 *59:19 *60:15 0.00562482
13 *59:19 *60:17 0
*RES
1 *4938:iptat *59:11 31.3815 
2 *59:11 *59:17 41.0918 
3 *59:17 *59:19 77.5384 
4 *59:19 *59:21 20 
5 *59:21 *59:23 39.655 
6 *59:23 *4948:iptat 21.3493 
*END

*D_NET *60 0.0444441
*CONN
*I *4950:ISENSE I *D g1_trip
*I *4948:isense I *D g1_sense
*CAP
1 *4950:ISENSE 0
2 *4948:isense 0.000165738
3 *60:17 0.00477841
4 *60:15 0.00821499
5 *60:11 0.00343658
6 *60:9 0.00223656
7 *60:7 0.00240229
8 *60:7 *89:7 0
9 *60:9 *88:17 0.00855225
10 *60:9 *89:9 0
11 *60:15 *66:23 0
12 *60:15 *89:15 0.001393
13 *60:15 *89:17 0
14 *60:17 *66:23 0
15 *60:17 *89:17 0.00743842
16 *4948:iptat *60:7 0.000201087
17 *59:19 *60:15 0.00562482
18 *59:19 *60:17 0
*RES
1 *4948:isense *60:7 21.7819 
2 *60:7 *60:9 39.655 
3 *60:9 *60:11 20 
4 *60:11 *60:15 38.0276 
5 *60:15 *60:17 52.4888 
6 *60:17 *4950:ISENSE 20 
*END

*D_NET *61 0.137761
*CONN
*I *4939:osc_clk I *D g1_digital
*I *4947:osc_clk O *D g1_osc
*CAP
1 *4939:osc_clk 0.000158802
2 *4947:osc_clk 0.00173859
3 *61:22 0.0184291
4 *61:20 0.0182703
5 *61:18 0.000980388
6 *61:14 0.00988547
7 *61:12 0.00890508
8 *61:10 0.0051977
9 *61:8 0.0051977
10 *61:6 0.00173859
11 *61:10 *88:31 0.0195772
12 *61:14 *63:14 0.0172711
13 *61:14 *88:13 0.0116487
14 *61:14 *88:27 0.00559011
15 *61:22 *85:11 0.00892793
16 *24:37 *61:22 0.00133946
17 *27:17 *61:22 0
18 *29:17 *61:22 0
19 *30:17 *61:22 0
20 *47:13 *61:18 0.00290437
21 *54:9 *61:18 0
*RES
1 *4947:osc_clk *61:6 43.6437 
2 *61:6 *61:8 20 
3 *61:8 *61:10 90.8254 
4 *61:10 *61:12 20 
5 *61:12 *61:14 115.607 
6 *61:14 *61:18 35.1822 
7 *61:18 *61:20 20 
8 *61:20 *61:22 175.522 
9 *61:22 *4939:osc_clk 21.9596 
*END

*D_NET *62 0.0692804
*CONN
*I *4947:en I *D g1_osc
*I *4939:osc_en O *D g1_digital
*CAP
1 *4947:en 0.000322633
2 *4939:osc_en 0.00233053
3 *62:18 0.0148678
4 *62:16 0.0145452
5 *62:14 0.0021113
6 *62:10 0.00444183
7 *4947:en *4947:trim[0] 0
8 *62:10 *64:19 0.00240575
9 *62:10 *66:15 0
10 *62:10 *76:12 0
11 *62:10 *76:14 3.2694e-05
12 *62:14 *64:23 0
13 *62:18 *65:14 0.0282226
14 *62:18 *68:13 0
15 *28:8 *62:18 0
16 *42:12 *62:14 0
*RES
1 *4939:osc_en *62:10 48.4512 
2 *62:10 *62:14 41.6094 
3 *62:14 *62:16 20 
4 *62:16 *62:18 191.961 
5 *62:18 *4947:en 23.6308 
*END

*D_NET *63 0.0517715
*CONN
*I *4947:trim[0] I *D g1_osc
*I *4939:osc_trim[0] O *D g1_digital
*CAP
1 *4947:trim[0] 0.000618498
2 *4939:osc_trim[0] 1.36066e-05
3 *63:14 0.0153446
4 *63:12 0.0166181
5 *63:8 0.00190559
6 *4947:trim[0] *4947:trim[1] 0
7 *63:12 *66:19 0
8 *63:14 *88:13 0
9 *4947:en *4947:trim[0] 0
10 *33:18 *63:12 0
11 *42:14 *63:14 0
12 *47:19 *63:14 0
13 *51:19 *63:14 0
14 *61:14 *63:14 0.0172711
*RES
1 *4939:osc_trim[0] *63:8 40.1262 
2 *63:8 *63:12 36.8714 
3 *63:12 *63:14 189.149 
4 *63:14 *4947:trim[0] 27.3696 
*END

*D_NET *64 0.0714053
*CONN
*I *4947:trim[1] I *D g1_osc
*I *4939:osc_trim[1] O *D g1_digital
*CAP
1 *4947:trim[1] 0.00091674
2 *4939:osc_trim[1] 0.00090767
3 *64:27 0.0162368
4 *64:25 0.0153201
5 *64:23 0.00110702
6 *64:19 0.00250241
7 *64:15 0.00230306
8 *4947:trim[1] *4947:trim[2] 0
9 *64:15 *4939:tripped 0
10 *64:15 *76:12 0
11 *64:15 *82:9 0
12 *64:19 *66:15 0.0026953
13 *64:23 *65:12 0
14 *64:23 *66:19 0
15 *64:27 *70:27 0.00723218
16 *64:27 *70:29 0
17 *4939:cmp_hard *64:15 0.00022655
18 *4947:trim[0] *4947:trim[1] 0
19 *33:22 *64:27 0.0195518
20 *62:10 *64:19 0.00240575
21 *62:14 *64:23 0
*RES
1 *4939:osc_trim[1] *64:15 48.4486 
2 *64:15 *64:19 38.0559 
3 *64:19 *64:23 33.9462 
4 *64:23 *64:25 20 
5 *64:25 *64:27 193.043 
6 *64:27 *4947:trim[1] 31.1085 
*END

*D_NET *65 0.0697669
*CONN
*I *4947:trim[2] I *D g1_osc
*I *4939:osc_trim[2] O *D g1_digital
*CAP
1 *4947:trim[2] 0.000262837
2 *4939:osc_trim[2] 1.35518e-05
3 *65:14 0.0189792
4 *65:12 0.0204957
5 *65:8 0.00179296
6 *4947:trim[2] *4947:trim[3] 0
7 *65:8 *66:15 0
8 *65:12 *66:19 0
9 *65:14 *66:23 0
10 *4947:trim[1] *4947:trim[2] 0
11 *33:14 *65:8 0
12 *62:18 *65:14 0.0282226
13 *64:23 *65:12 0
*RES
1 *4939:osc_trim[2] *65:8 40.1262 
2 *65:8 *65:12 40.8266 
3 *65:12 *65:14 193.475 
4 *65:14 *4947:trim[2] 22.9613 
*END

*D_NET *66 0.0523679
*CONN
*I *4947:trim[3] I *D g1_osc
*I *4939:osc_trim[3] O *D g1_digital
*CAP
1 *4947:trim[3] 0.000218859
2 *4939:osc_trim[3] 0.00016159
3 *66:23 0.0186953
4 *66:21 0.0184765
5 *66:19 0.00228014
6 *66:15 0.00478121
7 *66:11 0.00266266
8 *66:11 *4939:tripped 0
9 *66:15 *4939:por_n 0
10 *66:15 *76:12 0.0023963
11 *66:23 *89:15 0
12 *66:23 *89:17 0
13 *4939:en *66:15 0
14 *4947:trim[2] *4947:trim[3] 0
15 *4950:dac_soft[1] *66:23 0
16 *33:14 *66:15 0
17 *36:9 *66:11 0
18 *37:59 *66:11 0
19 *42:8 *66:15 0
20 *54:17 *66:23 0
21 *56:11 *66:11 0
22 *60:15 *66:23 0
23 *60:17 *66:23 0
24 *62:10 *66:15 0
25 *63:12 *66:19 0
26 *64:19 *66:15 0.0026953
27 *64:23 *66:19 0
28 *65:8 *66:15 0
29 *65:12 *66:19 0
30 *65:14 *66:23 0
*RES
1 *4939:osc_trim[3] *66:11 41.5682 
2 *66:11 *66:15 49.0872 
3 *66:15 *66:19 41.8566 
4 *66:19 *66:21 20 
5 *66:21 *66:23 193.475 
6 *66:23 *4947:trim[3] 22.6317 
*END

*D_NET *67 0.0757792
*CONN
*I *4949:pbias I *D g1_t2f
*I *4938:pbias O *D g1_bgr
*CAP
1 *4949:pbias 0
2 *4938:pbias 0.000454592
3 *67:21 0.00331724
4 *67:19 0.00331724
5 *67:17 0.00838151
6 *67:15 0.00838151
7 *67:13 0.00378785
8 *67:11 0.00424244
9 *67:11 *68:11 0.000999489
10 *67:13 *68:13 0
11 *67:13 *88:13 0.000339407
12 *67:13 *88:27 0.00554097
13 *67:17 *68:17 0.0314924
14 *67:17 *70:50 0
15 *67:21 *4949:mode 0.000176932
16 *67:21 *68:21 0.00534763
17 *67:21 *77:20 0
18 *59:11 *67:11 0
*RES
1 *4938:pbias *67:11 25.8504 
2 *67:11 *67:13 39.2533 
3 *67:13 *67:15 20 
4 *67:15 *67:17 146.198 
5 *67:17 *67:19 20 
6 *67:19 *67:21 38.3881 
7 *67:21 *4949:pbias 20 
*END

*D_NET *68 0.0855506
*CONN
*I *4949:pcasc I *D g1_t2f
*I *4938:pcasc O *D g1_bgr
*CAP
1 *4949:pcasc 0.00012644
2 *4938:pcasc 0.000523538
3 *68:21 0.00281978
4 *68:19 0.00269334
5 *68:17 0.00648683
6 *68:15 0.00648683
7 *68:13 0.00372012
8 *68:11 0.00424365
9 *68:11 *88:11 0
10 *68:13 *88:27 0
11 *68:17 *88:31 0.0205927
12 *4938:r4 *68:11 1.78082e-05
13 *59:11 *68:11 0
14 *62:18 *68:13 0
15 *67:11 *68:11 0.000999489
16 *67:13 *68:13 0
17 *67:17 *68:17 0.0314924
18 *67:21 *68:21 0.00534763
*RES
1 *4938:pcasc *68:11 26.3757 
2 *68:11 *68:13 39.2533 
3 *68:13 *68:15 20 
4 *68:15 *68:17 145.951 
5 *68:17 *68:19 20 
6 *68:19 *68:21 35.7925 
7 *68:21 *4949:pcasc 21.4832 
*END

*D_NET *69 0.0979549
*CONN
*I *4939:sclk I *D g1_digital
*I *4964:p2c O *D sg13g2_IOPadIn
*CAP
1 *4939:sclk 0.000358893
2 *4964:p2c 4.11724e-05
3 *69:21 0.00317688
4 *69:19 0.00281798
5 *69:17 0.0148373
6 *69:15 0.0148373
7 *69:13 7.95884e-05
8 *69:7 0.00832364
9 *69:5 0.00828523
10 *69:7 *70:7 0.0147995
11 *69:17 *71:17 0
12 *31:5 *69:21 0
13 *38:17 *69:21 0.0156251
14 *44:11 *4939:sclk 0
15 *45:13 *69:21 0.0147723
16 *46:11 *4939:sclk 0
17 *50:13 *69:21 0
*RES
1 *4964:p2c *69:5 0.543325 
2 *69:5 *69:7 126.051 
3 *69:7 *69:13 40.9682 
4 *69:13 *69:15 20 
5 *69:15 *69:17 186.337 
6 *69:17 *69:19 20 
7 *69:19 *69:21 72.2854 
8 *69:21 *4939:sclk 23.8805 
*END

*D_NET *70 0.147589
*CONN
*I *94:A I *D sg13g2_antennanp
*I *4939:sdi I *D g1_digital
*I *4965:p2c O *D sg13g2_IOPadIn
*CAP
1 *94:A 0
2 *4939:sdi 0
3 *4965:p2c 2.47815e-05
4 *70:58 0
5 *70:54 0.00191973
6 *70:50 0.0120805
7 *70:48 0.0101607
8 *70:41 0.00341911
9 *70:35 0.00341911
10 *70:33 0.0133376
11 *70:31 0.0133376
12 *70:29 0.00342554
13 *70:27 0.00709588
14 *70:23 0.00432263
15 *70:19 0.00303932
16 *70:15 0.00853076
17 *70:13 0.0067328
18 *70:7 0.00442867
19 *70:5 0.00386437
20 *70:7 *4966:c2p 0.00103776
21 *70:13 *4966:c2p 0.000502704
22 *25:11 *70:54 0
23 *25:13 *70:54 0
24 *30:13 *70:33 0
25 *38:21 *70:41 0.00638789
26 *41:17 *70:33 0
27 *41:19 *70:33 0.0149954
28 *49:23 *70:33 0.00215468
29 *53:15 *70:29 0.00133973
30 *64:27 *70:27 0.00723218
31 *64:27 *70:29 0
32 *67:17 *70:50 0
33 *69:7 *70:7 0.0147995
*RES
1 *4965:p2c *70:5 0.327025 
2 *70:5 *70:7 68.701 
3 *70:7 *70:13 28.2709 
4 *70:13 *70:15 76.6732 
5 *70:15 *70:19 49.9524 
6 *70:19 *70:23 27.2718 
7 *70:23 *70:27 48.7499 
8 *70:27 *70:29 35.2981 
9 *70:29 *70:31 20 
10 *70:31 *70:33 198.605 
11 *70:33 *70:35 20 
12 *70:35 *70:41 44.9209 
13 *70:41 *4939:sdi 20 
14 *70:15 *70:48 20 
15 *70:48 *70:50 133.097 
16 *70:50 *70:54 46.059 
17 *70:54 *70:58 40 
18 *70:58 *94:A 20 
*END

*D_NET *71 0.0563491
*CONN
*I *4966:c2p I *D sg13g2_IOPadOut4mA
*I *4939:sdo O *D g1_digital
*CAP
1 *4966:c2p 0.000915311
2 *4939:sdo 0.000292625
3 *71:17 0.0158134
4 *71:15 0.0148981
5 *71:13 0.00394093
6 *71:11 0.00423356
7 *43:11 *71:13 0
8 *45:11 *71:11 0
9 *51:13 *71:13 0.0147147
10 *53:9 *71:13 0
11 *69:17 *71:17 0
12 *70:7 *4966:c2p 0.00103776
13 *70:13 *4966:c2p 0.000502704
*RES
1 *4939:sdo *71:11 23.2316 
2 *71:11 *71:13 68.3302 
3 *71:13 *71:15 20 
4 *71:15 *71:17 186.77 
5 *71:17 *4966:c2p 33.3179 
*END

*D_NET *72 0.0135826
*CONN
*I *4948:sense_n I *D g1_sense
*I *4959:padbare I *D sg13g2_IOPadAnalog
*CAP
1 *4948:sense_n 5.29996e-05
2 *4959:padbare 0.000694094
3 *72:13 0.00234728
4 *72:11 0.00229428
5 *72:9 0.00374992
6 *72:7 0.00444402
*RES
1 *4959:padbare *72:7 28.7988 
2 *72:7 *72:9 50.9335 
3 *72:9 *72:11 20 
4 *72:11 *72:13 31.4974 
5 *72:13 *4948:sense_n 20.4841 
*END

*D_NET *73 0.021956
*CONN
*I *4948:sense_p I *D g1_sense
*I *4958:padbare I *D sg13g2_IOPadAnalog
*CAP
1 *4948:sense_p 0.001153
2 *4958:padbare 0.000246203
3 *73:19 0.00168734
4 *73:13 0.0025467
5 *73:9 0.00904448
6 *73:7 0.00727833
*RES
1 *4958:padbare *73:7 23.1132 
2 *73:7 *73:9 95.7076 
3 *73:9 *73:13 46.059 
4 *73:13 *73:19 47.0246 
5 *73:19 *4948:sense_p 34.6775 
*END

*D_NET *74 0.0163296
*CONN
*I *4944:in I *D g1_ls_up
*I *4939:t2f_en O *D g1_digital
*CAP
1 *4944:in 0.00016569
2 *4939:t2f_en 0.000141505
3 *74:9 0.00439751
4 *74:7 0.00437333
5 *32:9 *74:9 0.00725154
*RES
1 *4939:t2f_en *74:7 21.4652 
2 *74:7 *74:9 53.6733 
3 *74:9 *4944:in 1.9055 
*END

*D_NET *75 0.124843
*CONN
*I *4949:en I *D g1_t2f
*I *4944:out O *D g1_ls_up
*CAP
1 *4949:en 4.6961e-05
2 *4944:out 7.85353e-05
3 *75:32 0.00598699
4 *75:30 0.00600119
5 *75:24 0.00900538
6 *75:22 0.00894422
7 *75:20 0.00502175
8 *75:18 0.00502175
9 *75:16 0.0116078
10 *75:14 0.0139819
11 *75:10 0.00245261
12 *75:14 *76:22 0
13 *75:14 *77:8 0
14 *75:16 *77:12 0
15 *75:20 *77:16 0.0283473
16 *75:20 *85:31 0
17 *75:20 *90:14 0.028347
18 *75:24 *77:20 0
19 *32:13 *75:14 0
*RES
1 *4944:out *75:10 40.8858 
2 *75:10 *75:14 43.587 
3 *75:14 *75:16 117.554 
4 *75:16 *75:18 20 
5 *75:18 *75:20 132.108 
6 *75:20 *75:22 20 
7 *75:22 *75:24 94.4098 
8 *75:24 *75:30 40.5974 
9 *75:30 *75:32 74.7265 
10 *75:32 *4949:en 20.5459 
*END

*D_NET *76 0.0168519
*CONN
*I *4945:in I *D g1_ls_up
*I *4939:t2f_mode O *D g1_digital
*CAP
1 *4945:in 0.000132916
2 *4939:t2f_mode 0.00189283
3 *76:22 0.00238967
4 *76:14 0.00484649
5 *76:12 0.00448258
6 *76:12 *82:9 0
7 *76:14 *82:9 0
8 *4939:cmp_hard *76:12 0.000678445
9 *32:13 *76:22 0
10 *33:12 *76:22 0
11 *33:14 *76:12 0
12 *33:14 *76:14 0
13 *56:11 *76:14 0
14 *62:10 *76:12 0
15 *62:10 *76:14 3.2694e-05
16 *64:15 *76:12 0
17 *66:15 *76:12 0.0023963
18 *75:14 *76:22 0
*RES
1 *4939:t2f_mode *76:12 42.0343 
2 *76:12 *76:14 31.8991 
3 *76:14 *76:22 42.7733 
4 *76:22 *4945:in 21.7613 
*END

*D_NET *77 0.114086
*CONN
*I *4949:mode I *D g1_t2f
*I *4945:out O *D g1_ls_up
*CAP
1 *4949:mode 0.000110785
2 *4945:out 0.000380055
3 *77:20 0.0124391
4 *77:18 0.0123284
5 *77:16 0.00508392
6 *77:14 0.00508392
7 *77:12 0.0116666
8 *77:10 0.0116666
9 *77:8 0.000380055
10 *77:16 *85:31 0.0264219
11 *67:21 *4949:mode 0.000176932
12 *67:21 *77:20 0
13 *75:14 *77:8 0
14 *75:16 *77:12 0
15 *75:20 *77:16 0.0283473
16 *75:24 *77:20 0
*RES
1 *4945:out *77:8 43.811 
2 *77:8 *77:10 20 
3 *77:10 *77:12 118.203 
4 *77:12 *77:14 20 
5 *77:14 *77:16 131.119 
6 *77:16 *77:18 20 
7 *77:18 *77:20 134.642 
8 *77:20 *4949:mode 21.5347 
*END

*D_NET *78 0.0183542
*CONN
*I *4967:c2p I *D sg13g2_IOPadOut16mA
*I *4949:fout O *D g1_t2f
*CAP
1 *4967:c2p 3.21965e-05
2 *4949:fout 0.00162916
3 *78:10 0.00754792
4 *78:8 0.00751573
5 *78:6 0.00162916
*RES
1 *4949:fout *78:6 42.1656 
2 *78:6 *78:8 20 
3 *78:8 *78:10 98.983 
4 *78:10 *4967:c2p 0.424875 
*END

*D_NET *82 0.0138083
*CONN
*I *4943:trip_d I *D g1_gate
*I *4939:trip_d O *D g1_digital
*CAP
1 *4943:trip_d 0.00132411
2 *4939:trip_d 0.00234749
3 *82:9 0.00367159
4 *4939:cmp_hard *82:9 0
5 *4943:clr_d *4943:trip_d 0.00359343
6 *33:14 *82:9 0
7 *35:9 *82:9 0
8 *37:43 *4943:trip_d 0.000287422
9 *56:11 *82:9 0.00112905
10 *56:21 *4943:trip_d 0.00145522
11 *64:15 *82:9 0
12 *76:12 *82:9 0
13 *76:14 *82:9 0
*RES
1 *4939:trip_d *82:9 42.5441 
2 *82:9 *4943:trip_d 42.3922 
*END

*D_NET *85 0.110435
*CONN
*I *96:A I *D sg13g2_antennanp
*I *95:A I *D sg13g2_antennanp
*I *4939:tripped I *D g1_digital
*I *4943:tripped I *D g1_gate
*CAP
1 *96:A 7.42932e-05
2 *95:A 0
3 *4939:tripped 0.000272173
4 *4943:tripped 3.84498e-05
5 *85:37 7.42932e-05
6 *85:35 0.00636754
7 *85:33 0.00636754
8 *85:31 0.00511531
9 *85:29 0.00712074
10 *85:25 0.003404
11 *85:11 0.00488621
12 *85:9 0.00569288
13 *85:5 0.00251586
14 *28:12 *85:25 0
15 *28:18 *85:31 0
16 *30:17 *85:11 0.00892834
17 *37:17 *85:31 0
18 *42:18 *85:31 0.0242274
19 *61:22 *85:11 0.00892793
20 *64:15 *4939:tripped 0
21 *66:11 *4939:tripped 0
22 *75:20 *85:31 0
23 *77:16 *85:31 0.0264219
*RES
1 *4943:tripped *85:5 0.4841 
2 *85:5 *85:9 33.4518 
3 *85:9 *85:11 59.8018 
4 *85:11 *4939:tripped 22.2068 
5 *85:5 *85:25 33.5239 
6 *85:25 *85:29 44.9775 
7 *85:29 *85:31 125.681 
8 *85:31 *85:33 20 
9 *85:33 *85:35 86.623 
10 *85:35 *85:37 20 
11 *85:37 *95:A 40 
12 *85:37 *96:A 40.8446 
*END

*D_NET *88 0.123309
*CONN
*I *4949:vref I *D g1_t2f
*I *4968:padres I *D sg13g2_IOPadAnalog
*I *4948:vref I *D g1_sense
*I *4938:vref O *D g1_bgr
*CAP
1 *4949:vref 0
2 *4968:padres 0.00145327
3 *4948:vref 0.000158974
4 *4938:vref 0.000500006
5 *88:61 0.00231555
6 *88:49 0.00158936
7 *88:43 0.00223258
8 *88:39 0.00550136
9 *88:35 0.00321538
10 *88:31 0.0058765
11 *88:29 0.00375044
12 *88:27 0.00288323
13 *88:17 0.00295413
14 *88:15 0.00279516
15 *88:13 0.00616437
16 *88:11 0.00954761
17 *4938:r4 *88:11 0
18 *4948:iptat *4948:vref 0
19 *42:14 *88:13 0.000529681
20 *60:9 *88:17 0.00855225
21 *61:10 *88:31 0.0195772
22 *61:14 *88:13 0.0116487
23 *61:14 *88:27 0.00559011
24 *63:14 *88:13 0
25 *67:13 *88:13 0.000339407
26 *67:13 *88:27 0.00554097
27 *68:11 *88:11 0
28 *68:13 *88:27 0
29 *68:17 *88:31 0.0205927
*RES
1 *4938:vref *88:11 25.6032 
2 *88:11 *88:13 80.5666 
3 *88:13 *88:15 20 
4 *88:15 *88:17 46.8238 
5 *88:17 *4948:vref 21.5656 
6 *88:11 *88:27 37.5229 
7 *88:27 *88:29 20 
8 *88:29 *88:31 96.0166 
9 *88:31 *88:35 48.8709 
10 *88:35 *88:39 34.935 
11 *88:39 *88:43 48.4383 
12 *88:43 *88:49 41.5862 
13 *88:49 *4968:padres 18.1666 
14 *88:39 *88:61 31.9918 
15 *88:61 *4949:vref 40 
*END

*D_NET *89 0.0375335
*CONN
*I *4950:VREF I *D g1_trip
*I *4948:vref_buf I *D g1_sense
*CAP
1 *4950:VREF 0
2 *4948:vref_buf 0.000361672
3 *89:17 0.00619591
4 *89:15 0.00699144
5 *89:9 0.0029886
6 *89:7 0.00255474
7 *4950:dac_soft[3] *89:15 0.00109345
8 *41:19 *89:9 0.00839225
9 *54:17 *89:17 0.000124028
10 *60:7 *89:7 0
11 *60:9 *89:9 0
12 *60:15 *89:15 0.001393
13 *60:15 *89:17 0
14 *60:17 *89:17 0.00743842
15 *66:23 *89:15 0
16 *66:23 *89:17 0
*RES
1 *4948:vref_buf *89:7 24.1612 
2 *89:7 *89:9 38.9134 
3 *89:9 *89:15 29.6923 
4 *89:15 *89:17 75.7565 
5 *89:17 *4950:VREF 20 
*END

*D_NET *90 0.0758091
*CONN
*I *4939:por_n I *D g1_digital
*I *4940:L_HI O *D sg13g2_tiehi
*CAP
1 *4939:por_n 1.37502e-05
2 *4940:L_HI 7.94635e-05
3 *90:22 0.00267587
4 *90:20 0.00266212
5 *90:18 0.00496018
6 *90:16 0.00496018
7 *90:14 0.00908913
8 *90:12 0.00908913
9 *90:10 0.00692641
10 *90:8 0.00700587
11 *25:21 *90:18 0
12 *25:27 *90:22 0
13 *25:51 *90:22 0
14 *66:15 *4939:por_n 0
15 *75:20 *90:14 0.028347
*RES
1 *4940:L_HI *90:8 20.9785 
2 *90:8 *90:10 87.2101 
3 *90:10 *90:12 20 
4 *90:12 *90:14 152.873 
5 *90:14 *90:16 20 
6 *90:16 *90:18 63.0463 
7 *90:18 *90:20 20 
8 *90:20 *90:22 32.6922 
9 *90:22 *4939:por_n 40.1262 
*END
